# CELL file written 01:02:17 (GMT-5.0) 11th December 2025 from run ml_dos

%BLOCK lattice_cart
   ANG
       8.48221700000000        0.00000000000000        0.00000000000000    
       4.20066600000000        7.36901700000000        0.00000000000000    
       4.20066600000000        2.44067400000000        6.95309500000000    
%ENDBLOCK lattice_cart

%BLOCK positions_frac
   Li               0.499999000000000       0.500001000000000       0.500000000000000
   Li               0.000001000000000       0.999999000000000       0.000000000000000
   O                0.497341000000000       0.122069000000000       0.310849000000000
   O                0.122068000000000       0.310849000000000       0.497341000000000
   O                0.310849000000000       0.497341000000000       0.122068000000000
   O                0.997341000000000       0.810849000000000       0.622068000000000
   O                0.810849000000000       0.622068000000000       0.997341000000000
   O                0.622068000000000       0.997341000000000       0.810849000000000
   O                0.502659000000000       0.877931000000000       0.689151000000000
   O                0.877932000000000       0.689151000000000       0.502659000000000
   O                0.689151000000000       0.502659000000000       0.877932000000000
   O                0.002659000000000       0.189151000000000       0.377932000000000
   O                0.189151000000000       0.377932000000000       0.002659000000000
   O                0.377932000000000       0.002659000000000       0.189150000000000
   O                0.444345000000000       0.232478000000000       0.585552000000000
   O                0.232478000000000       0.585552000000000       0.444345000000000
   O                0.585553000000000       0.444344000000000       0.232478000000000
   O                0.944345000000000       0.085552000000000       0.732478000000000
   O                0.085552000000000       0.732478000000000       0.944345000000000
   O                0.732477000000000       0.944345000000000       0.085552000000000
   O                0.555655000000000       0.767522000000000       0.414448000000000
   O                0.767523000000000       0.414447000000000       0.555655000000000
   O                0.414447000000000       0.555655000000000       0.767523000000000
   O                0.055655000000000       0.914448000000000       0.267522000000000
   O                0.914447000000000       0.267523000000000       0.055655000000000
   O                0.267523000000000       0.055655000000000       0.914447000000000
   P                0.540651000000000       0.959349000000000       0.250000000000000
   P                0.959349000000000       0.250000000000000       0.540652000000000
   P                0.250000000000000       0.540652000000000       0.959349000000000
   P                0.040652000000000       0.750000000000000       0.459348000000000
   P                0.750000000000000       0.459349000000000       0.040651000000000
   P                0.459349000000000       0.040652000000000       0.750000000000000
   Ti               0.359554000000000       0.359554000000000       0.359553000000000
   Ti               0.859554000000000       0.859553000000000       0.859553000000000
   Ti               0.640446000000000       0.640447000000000       0.640447000000000
   Ti               0.140447000000000       0.140447000000000       0.140447000000000
%ENDBLOCK positions_frac

FIX_COM : true

%BLOCK species_pot
   Li        1|1.0|14|16|18|10U:20(qc=7)
   O         2|1.1|17|20|23|20:21(qc=8)
   P         3|1.8|4|4|5|30:31:32
   Ti        3|1.8|9|10|11|30U:40:31:32(qc=5.5)
%ENDBLOCK species_pot

%BLOCK species_lcao_states
   Li        3
   O         2
   P         2
   Ti        5
%ENDBLOCK species_lcao_states

SYMMETRY_TOL :     0.001000

%BLOCK symmetry_ops
# Symm. op. 1       E
          1.000000000000000       0.000000000000000       0.000000000000000
          0.000000000000000       1.000000000000000       0.000000000000000
          0.000000000000000       0.000000000000000       1.000000000000000
          0.000000000000000       0.000000000000000       0.000000000000000
%ENDBLOCK symmetry_ops

kpoint_mp_grid :    4   4   4

phonon_kpoint_mp_grid :    4   4   4

phonon_kpoint_mp_offset :        0.125000000000000       0.125000000000000       0.125000000000000

