# written by ASE

%BLOCK LATTICE_CART
 8.482217  0.000000  0.000000
 4.200666  7.369017  0.000000
 4.200666  2.440674  6.953095
%ENDBLOCK LATTICE_CART

%BLOCK POSITIONS_FRAC
Ti  0.359554  0.359554  0.359553
Ti  0.859554  0.859553  0.859553
Ti  0.640446  0.640447  0.640447
Ti  0.140447  0.140447  0.140447
P  0.540651  0.959349  0.250000
P  0.959349  0.250000  0.540652
P  0.250000  0.540652  0.959349
P  0.040652  0.750000  0.459348
P  0.750000  0.459349  0.040651
P  0.459349  0.040652  0.750000
O  0.497341  0.122069  0.310849
O  0.122068  0.310849  0.497341
O  0.310849  0.497341  0.122068
O  0.997341  0.810849  0.622068
O  0.810849  0.622068  0.997341
O  0.622068  0.997341  0.810849
O  0.502659  0.877931  0.689151
O  0.877932  0.689151  0.502659
O  0.689151  0.502659  0.877932
O  0.002659  0.189151  0.377932
O  0.189151  0.377932  0.002659
O  0.377932  0.002659  0.189150
O  0.444345  0.232478  0.585552
O  0.232478  0.585552  0.444345
O  0.585553  0.444344  0.232478
O  0.944345  0.085552  0.732478
O  0.085552  0.732478  0.944345
O  0.732477  0.944345  0.085552
O  0.555655  0.767522  0.414448
O  0.767523  0.414447  0.555655
O  0.414447  0.555655  0.767523
O  0.055655  0.914448  0.267522
O  0.914447  0.267523  0.055655
O  0.267523  0.055655  0.914447
Li  0.499999  0.500001  0.500000
Li  0.000001  0.999999  0.000000
%ENDBLOCK POSITIONS_FRAC

KPOINT_MP_GRID: 4 4 4

spectral_kpoint_mp_grid: 4 4 4