# CELL file written 20:15:55 (GMT-5.0) 20th February 2026 from run ml_dos

%BLOCK lattice_cart
   ANG
       8.15829200000000        0.00000000000000        0.00000000000000    
       3.81461500000000        7.21154900000000        0.00000000000000    
      -1.10450600000000      -0.665268000000000        14.3137870000000    
%ENDBLOCK lattice_cart

%BLOCK positions_frac
   Li               0.946524000000000       0.295168000000000       0.707167000000000
   Li               0.295168000000000       0.946524000000000       0.207167000000000
   Li               0.005010000000000       0.645789000000000       0.034875000000000
   Li               0.645789000000000       0.005010000000000       0.534875000000000
   Li               0.338461000000000       0.694524000000000       0.374266000000000
   Li               0.694524000000000       0.338461000000000       0.874266000000000
   Li               0.539156000000000       0.070088000000000       0.228837000000000
   Li               0.070088000000000       0.539156000000000       0.728837000000000
   Li               0.810374000000000       0.230166000000000       0.188257000000000
   Li               0.230166000000000       0.810374000000000       0.688257000000000
   O                0.154041000000000       0.803432000000000       0.479993000000000
   O                0.803432000000000       0.154041000000000       0.979993000000000
   O                0.188397000000000       0.499945000000000       0.141807000000000
   O                0.499945000000000       0.188397000000000       0.641807000000000
   O                0.281900000000000       0.205344000000000       0.280264000000000
   O                0.205344000000000       0.281900000000000       0.780264000000000
   O                0.894319000000000       0.887539000000000       0.118273000000000
   O                0.887539000000000       0.894319000000000       0.618273000000000
   O                0.783695000000000       0.072879000000000       0.285700000000000
   O                0.072879000000000       0.783695000000000       0.785700000000000
   O                0.159840000000000       0.451689000000000       0.440954000000000
   O                0.451689000000000       0.159840000000000       0.940954000000000
   O                0.641663000000000       0.448990000000000       0.622298000000000
   O                0.448990000000000       0.641663000000000       0.122298000000000
   O                0.821025000000000       0.410394000000000       0.297443000000000
   O                0.410394000000000       0.821025000000000       0.797443000000000
   O                0.619793000000000       0.553741000000000       0.439640000000000
   O                0.553741000000000       0.619793000000000       0.939640000000000
   O                0.543002000000000       0.811427000000000       0.302917000000000
   O                0.811427000000000       0.543002000000000       0.802917000000000
   O                0.544631000000000       0.815366000000000       0.602676000000000
   O                0.815366000000000       0.544631000000000       0.102676000000000
   O                0.283338000000000       0.063724000000000       0.456435000000000
   O                0.063724000000000       0.283338000000000       0.956435000000000
   O                0.915755000000000       0.676092000000000       0.283819000000000
   O                0.676092000000000       0.915755000000000       0.783819000000000
   O                0.165682000000000       0.830969000000000       0.266866000000000
   O                0.830969000000000       0.165682000000000       0.766866000000000
   O                0.457108000000000       0.453590000000000       0.292970000000000
   O                0.453590000000000       0.457108000000000       0.792970000000000
   O                0.896331000000000       0.185951000000000       0.472156000000000
   O                0.185951000000000       0.896331000000000       0.972156000000000
   O                0.568942000000000       0.252636000000000       0.129994000000000
   O                0.252636000000000       0.568942000000000       0.629994000000000
   O                0.792799000000000       0.737809000000000       0.463942000000000
   O                0.737809000000000       0.792799000000000       0.963942000000000
   O                0.147980000000000       0.055945000000000       0.632733000000000
   O                0.055945000000000       0.147980000000000       0.132733000000000
   O                0.541834000000000       0.195404000000000       0.430735000000000
   O                0.195404000000000       0.541834000000000       0.930735000000000
   O                0.925097000000000       0.527341000000000       0.606855000000000
   O                0.527341000000000       0.925097000000000       0.106855000000000
   V                0.407202000000000       0.470274000000000       0.173094000000000 SPIN= 1.000
   V                0.470274000000000       0.407202000000000       0.673094000000000 SPIN= 1.000
   V                0.739494000000000       0.649094000000000       0.350484000000000 SPIN= 1.000
   V                0.649094000000000       0.739494000000000       0.850484000000000 SPIN= 1.000
   V                0.113030000000000       0.029720000000000       0.512354000000000 SPIN= 1.000
   V                0.029720000000000       0.113030000000000       0.012354000000000 SPIN= 1.000
   V                0.695180000000000       0.604160000000000       0.559972000000000 SPIN= 1.000
   V                0.604160000000000       0.695180000000000       0.059972000000000 SPIN= 1.000
   V                0.314874000000000       0.236515000000000       0.400426000000000 SPIN= 1.000
   V                0.236515000000000       0.314874000000000       0.900426000000000 SPIN= 1.000
   V                0.949549000000000       0.858978000000000       0.238108000000000 SPIN= 1.000
   V                0.858978000000000       0.949549000000000       0.738108000000000 SPIN= 1.000
   Fe               0.695856000000000       0.296971000000000       0.375484000000000 SPIN= 4.500
   Fe               0.296971000000000       0.695856000000000       0.875484000000000 SPIN= 4.500
   Fe               0.039352000000000       0.659828000000000       0.533895000000000 SPIN= 4.500
   Fe               0.659828000000000       0.039352000000000       0.033895000000000 SPIN= 4.500
   Fe               0.399430000000000       0.036218000000000       0.707651000000000 SPIN= 4.500
   Fe               0.036218000000000       0.399430000000000       0.207651000000000 SPIN= 4.500
%ENDBLOCK positions_frac

FIX_COM : true

%BLOCK hubbard_u
   EV
   V         d:3.250000
   Fe        d:5.300000
%ENDBLOCK hubbard_u

QUANTISATION_AXIS :     0.000000    0.000000    1.000000

%BLOCK species_pot
   Li        1|1.0|14|16|18|10U:20(qc=7)
   O         2|1.1|17|20|23|20:21(qc=8)
   V         3|1.8|1.8|0.6|12|14|16|30U:40:31:32(qc=7)
   Fe        3|2.4|2.4|1.0|8|9|10|40:41:32U2U2(qc=5.5)
%ENDBLOCK species_pot

%BLOCK species_lcao_states
   Li        3
   O         2
   V         5
   Fe        3
%ENDBLOCK species_lcao_states

SYMMETRY_TOL :     0.001000

%BLOCK symmetry_ops
# Symm. op. 1       E
          1.000000000000000       0.000000000000000       0.000000000000000
          0.000000000000000       1.000000000000000       0.000000000000000
          0.000000000000000       0.000000000000000       1.000000000000000
          0.000000000000000       0.000000000000000       0.000000000000000
%ENDBLOCK symmetry_ops

kpoint_mp_grid :    3   3   2

phonon_kpoint_mp_grid :    3   3   2

phonon_kpoint_mp_offset :        0.000000000000000       0.000000000000000       0.250000000000000

