# written by ASE

%BLOCK LATTICE_CART
 8.158292  0.000000  0.000000
 3.814615  7.211549  0.000000
-1.104506 -0.665268 14.313787
%ENDBLOCK LATTICE_CART

%BLOCK POSITIONS_FRAC
Fe  0.695856  0.296971  0.375484 spin 4.5
Fe  0.296971  0.695856  0.875484 spin 4.5
Fe  0.039352  0.659828  0.533895 spin 4.5
Fe  0.659828  0.039352  0.033895 spin 4.5
Fe  0.399430  0.036218  0.707651 spin 4.5
Fe  0.036218  0.399430  0.207651 spin 4.5
V  0.407202  0.470274  0.173094 spin 1
V  0.470274  0.407202  0.673094 spin 1
V  0.739494  0.649094  0.350484 spin 1
V  0.649094  0.739494  0.850484 spin 1
V  0.113030  0.029720  0.512354 spin 1
V  0.029720  0.113030  0.012354 spin 1
V  0.695180  0.604160  0.559972 spin 1
V  0.604160  0.695180  0.059972 spin 1
V  0.314874  0.236515  0.400426 spin 1
V  0.236515  0.314874  0.900426 spin 1
V  0.949549  0.858978  0.238108 spin 1
V  0.858978  0.949549  0.738108 spin 1
O  0.154041  0.803432  0.479993
O  0.803432  0.154041  0.979993
O  0.188397  0.499945  0.141807
O  0.499945  0.188397  0.641807
O  0.281900  0.205344  0.280264
O  0.205344  0.281900  0.780264
O  0.894319  0.887539  0.118273
O  0.887539  0.894319  0.618273
O  0.783695  0.072879  0.285700
O  0.072879  0.783695  0.785700
O  0.159840  0.451689  0.440954
O  0.451689  0.159840  0.940954
O  0.641663  0.448990  0.622298
O  0.448990  0.641663  0.122298
O  0.821025  0.410394  0.297443
O  0.410394  0.821025  0.797443
O  0.619793  0.553741  0.439640
O  0.553741  0.619793  0.939640
O  0.543002  0.811427  0.302917
O  0.811427  0.543002  0.802917
O  0.544631  0.815366  0.602676
O  0.815366  0.544631  0.102676
O  0.283338  0.063724  0.456435
O  0.063724  0.283338  0.956435
O  0.915755  0.676092  0.283819
O  0.676092  0.915755  0.783819
O  0.165682  0.830969  0.266866
O  0.830969  0.165682  0.766866
O  0.457108  0.453590  0.292970
O  0.453590  0.457108  0.792970
O  0.896331  0.185951  0.472156
O  0.185951  0.896331  0.972156
O  0.568942  0.252636  0.129994
O  0.252636  0.568942  0.629994
O  0.792799  0.737809  0.463942
O  0.737809  0.792799  0.963942
O  0.147980  0.055945  0.632733
O  0.055945  0.147980  0.132733
O  0.541834  0.195404  0.430735
O  0.195404  0.541834  0.930735
O  0.925097  0.527341  0.606855
O  0.527341  0.925097  0.106855
Li  0.946524  0.295168  0.707167
Li  0.295168  0.946524  0.207167
Li  0.005010  0.645789  0.034875
Li  0.645789  0.005010  0.534875
Li  0.338461  0.694524  0.374266
Li  0.694524  0.338461  0.874266
Li  0.539156  0.070088  0.228837
Li  0.070088  0.539156  0.728837
Li  0.810374  0.230166  0.188257
Li  0.230166  0.810374  0.688257
%ENDBLOCK POSITIONS_FRAC

%BLOCK hubbard_u
   EV
   V         d:3.250000
   Fe        d:5.300000
%ENDBLOCK hubbard_u

KPOINT_MP_GRID: 3 3 2

SPECTRAL_KPOINT_MP_GRID: 3 3 2
