# CELL file written 02:10:31 (GMT-5.0) 11th December 2025 from run ml_dos

%BLOCK lattice_cart
   ANG
       8.81921300000000        0.00000000000000        0.00000000000000    
       0.00000000000000        8.95380700000000        0.00000000000000    
     -0.218062000000000        0.00000000000000        12.3791180000000    
%ENDBLOCK lattice_cart

%BLOCK positions_frac
   Li               0.205468000000000       0.722685000000000       0.175548000000000
   Li               0.705467000000000       0.777314000000000       0.675548000000000
   Li               0.794532000000000       0.277314000000000       0.824452000000000
   Li               0.294532000000000       0.222685000000000       0.324452000000000
   O                0.851939000000000       0.913565000000000       0.030293000000000
   O                0.351939000000000       0.586435000000000       0.530293000000000
   O                0.148061000000000       0.086435000000000       0.969707000000000
   O                0.648061000000000       0.413565000000000       0.469707000000000
   O                0.817563000000000       0.752283000000000       0.818202000000000
   O                0.317563000000000       0.747717000000000       0.318202000000000
   O                0.182437000000000       0.247717000000000       0.181798000000000
   O                0.682437000000000       0.252283000000000       0.681798000000000
   O                0.551287000000000       0.862565000000000       0.942447000000000
   O                0.051287000000000       0.637435000000000       0.442447000000000
   O                0.448713000000000       0.137435000000000       0.057553000000000
   O                0.948713000000000       0.362565000000000       0.557553000000000
   O                0.925046000000000       0.095208000000000       0.842938000000000
   O                0.425046000000000       0.404792000000000       0.342938000000000
   O                0.074954000000000       0.904792000000000       0.157062000000000
   O                0.574954000000000       0.595208000000000       0.657062000000000
   O                0.668338000000000       0.979797000000000       0.725763000000000
   O                0.168338000000000       0.520203000000000       0.225763000000000
   O                0.331662000000000       0.020203000000000       0.274237000000000
   O                0.831662000000000       0.479797000000000       0.774237000000000
   O                0.653641000000000       0.165028000000000       0.920686000000000
   O                0.153642000000000       0.334972000000000       0.420686000000000
   O                0.346358000000000       0.834972000000000       0.079314000000000
   O                0.846358000000000       0.665028000000000       0.579314000000000
   O                0.825457000000000       0.560555000000000       0.965214000000000
   O                0.325457000000000       0.939445000000000       0.465214000000000
   O                0.174543000000000       0.439445000000000       0.034786000000000
   O                0.674543000000000       0.060556000000000       0.534786000000000
   O                0.877663000000000       0.711886000000000       0.169719000000000
   O                0.377663000000000       0.788114000000000       0.669719000000000
   O                0.122337000000000       0.288114000000000       0.830281000000000
   O                0.622337000000000       0.211886000000000       0.330281000000000
   O                0.573414000000000       0.672172000000000       0.090079000000000
   O                0.073414000000000       0.827827000000000       0.590079000000000
   O                0.426586000000000       0.327827000000000       0.909921000000000
   O                0.926586000000000       0.172172000000000       0.409921000000000
   O                0.942847000000000       0.391005000000000       0.144252000000000
   O                0.442847000000000       0.108995000000000       0.644252000000000
   O                0.057153000000000       0.608995000000000       0.855748000000000
   O                0.557153000000000       0.891005000000000       0.355748000000000
   O                0.680782000000000       0.476413000000000       0.275926000000000
   O                0.180782000000000       0.023587000000000       0.775926000000000
   O                0.319218000000000       0.523587000000000       0.724074000000000
   O                0.819218000000000       0.976413000000000       0.224074000000000
   O                0.617470000000000       0.357696000000000       0.061183000000000
   O                0.117470000000000       0.142304000000000       0.561183000000000
   O                0.382530000000000       0.642304000000000       0.938816000000000
   O                0.882530000000000       0.857696000000000       0.438817000000000
   P                0.885304000000000       0.600961000000000       0.855188000000000
   P                0.385304000000000       0.899039000000000       0.355188000000000
   P                0.114696000000000       0.399039000000000       0.144812000000000
   P                0.614696000000000       0.100961000000000       0.644812000000000
   P                0.903071000000000       0.876551000000000       0.146138000000000
   P                0.403071000000000       0.623449000000000       0.646138000000000
   P                0.096929000000000       0.123449000000000       0.853862000000000
   P                0.596929000000000       0.376551000000000       0.353862000000000
   P                0.465701000000000       0.751244000000000       0.012395000000000
   P                0.965701000000000       0.748756000000000       0.512394000000000
   P                0.534299000000000       0.248756000000000       0.987605000000000
   P                0.034299000000000       0.251244000000000       0.487605000000000
   Zr               0.745080000000000       0.954335000000000       0.888019000000000
   Zr               0.245080000000000       0.545665000000000       0.388019000000000
   Zr               0.254920000000000       0.045665000000000       0.111981000000000
   Zr               0.754920000000000       0.454335000000000       0.611981000000000
   Zr               0.751376000000000       0.525046000000000       0.122638000000000
   Zr               0.251376000000000       0.974954000000000       0.622638000000000
   Zr               0.248624000000000       0.474954000000000       0.877362000000000
   Zr               0.748624000000000       0.025046000000000       0.377362000000000
%ENDBLOCK positions_frac

FIX_COM : true

%BLOCK species_pot
   Li        1|1.0|14|16|18|10U:20(qc=7)
   O         2|1.1|17|20|23|20:21(qc=8)
   P         3|1.8|4|4|5|30:31:32
   Zr        3|2.1|7|8|9|40U:50:41:42
%ENDBLOCK species_pot

%BLOCK species_lcao_states
   Li        3
   O         2
   P         2
   Zr        5
%ENDBLOCK species_lcao_states

SYMMETRY_TOL :     0.001000

%BLOCK symmetry_ops
# Symm. op. 1       E
          1.000000000000000       0.000000000000000       0.000000000000000
          0.000000000000000       1.000000000000000       0.000000000000000
          0.000000000000000       0.000000000000000       1.000000000000000
          0.000000000000000       0.000000000000000       0.000000000000000
%ENDBLOCK symmetry_ops

kpoint_mp_grid :    4   4   3

phonon_kpoint_mp_grid :    4   4   3

phonon_kpoint_mp_offset :        0.125000000000000       0.125000000000000       0.000000000000000

