# written by ASE

%BLOCK LATTICE_CART
 8.819213  0.000000  0.000000
-0.000000  8.953807  0.000000
-0.218062  0.000000 12.379118
%ENDBLOCK LATTICE_CART

%BLOCK POSITIONS_FRAC
Li  0.205468  0.722685  0.175548
Li  0.705467  0.777314  0.675548
Li  0.794532  0.277314  0.824452
Li  0.294532  0.222685  0.324452
Zr  0.745080  0.954335  0.888019
Zr  0.245080  0.545665  0.388019
Zr  0.254920  0.045665  0.111981
Zr  0.754920  0.454335  0.611981
Zr  0.751376  0.525046  0.122638
Zr  0.251376  0.974954  0.622638
Zr  0.248624  0.474954  0.877362
Zr  0.748624  0.025046  0.377362
P  0.885304  0.600961  0.855188
P  0.385304  0.899039  0.355188
P  0.114696  0.399039  0.144812
P  0.614696  0.100961  0.644812
P  0.903071  0.876551  0.146138
P  0.403071  0.623449  0.646138
P  0.096929  0.123449  0.853862
P  0.596929  0.376551  0.353862
P  0.465701  0.751244  0.012395
P  0.965701  0.748756  0.512394
P  0.534299  0.248756  0.987605
P  0.034299  0.251244  0.487605
O  0.851939  0.913565  0.030293
O  0.351939  0.586435  0.530293
O  0.148061  0.086435  0.969707
O  0.648061  0.413565  0.469707
O  0.817563  0.752283  0.818202
O  0.317563  0.747717  0.318202
O  0.182437  0.247717  0.181798
O  0.682437  0.252283  0.681798
O  0.551287  0.862565  0.942447
O  0.051287  0.637435  0.442447
O  0.448713  0.137435  0.057553
O  0.948713  0.362565  0.557553
O  0.925046  0.095208  0.842938
O  0.425046  0.404792  0.342938
O  0.074954  0.904792  0.157062
O  0.574954  0.595208  0.657062
O  0.668338  0.979797  0.725763
O  0.168338  0.520203  0.225763
O  0.331662  0.020203  0.274237
O  0.831662  0.479797  0.774237
O  0.653641  0.165028  0.920686
O  0.153642  0.334972  0.420686
O  0.346358  0.834972  0.079314
O  0.846358  0.665028  0.579314
O  0.825457  0.560555  0.965214
O  0.325457  0.939445  0.465214
O  0.174543  0.439445  0.034786
O  0.674543  0.060556  0.534786
O  0.877663  0.711886  0.169719
O  0.377663  0.788114  0.669719
O  0.122337  0.288114  0.830281
O  0.622337  0.211886  0.330281
O  0.573414  0.672172  0.090079
O  0.073414  0.827827  0.590079
O  0.426586  0.327827  0.909921
O  0.926586  0.172172  0.409921
O  0.942847  0.391005  0.144252
O  0.442847  0.108995  0.644252
O  0.057153  0.608995  0.855748
O  0.557153  0.891005  0.355748
O  0.680782  0.476413  0.275926
O  0.180782  0.023587  0.775926
O  0.319218  0.523587  0.724074
O  0.819218  0.976413  0.224074
O  0.617470  0.357696  0.061183
O  0.117470  0.142304  0.561183
O  0.382530  0.642304  0.938816
O  0.882530  0.857696  0.438817
%ENDBLOCK POSITIONS_FRAC

KPOINT_MP_GRID: 4 4 3

SPECTRAL_KPOINT_MP_GRID: 4 4 3