# written by ASE

%BLOCK LATTICE_CART
10.486703  0.000000  0.000000
-0.000001  6.070506  0.000000
-0.000000  0.000001  4.754896
%ENDBLOCK LATTICE_CART

%BLOCK POSITIONS_FRAC
Li  0.500005  0.000021  0.500027
Li  0.999996  0.500011  0.000017
Li  0.499999  0.500017  0.499980
Li  0.000007  0.000014  0.999983
Fe  0.779896  0.249998  0.523610 spin 4.5
Fe  0.279899  0.250000  0.976388 spin -4.5
Fe  0.220101  0.750001  0.476384 spin 4.5
Fe  0.720103  0.749997  0.023616 spin -4.5
P  0.593097  0.249998  0.082735
P  0.093097  0.249997  0.417263
P  0.406902  0.749996  0.917267
P  0.906901  0.749998  0.582735
O  0.597896  0.249997  0.759534
O  0.097895  0.249998  0.740464
O  0.402105  0.749999  0.240469
O  0.902105  0.749996  0.259532
O  0.955596  0.249999  0.295753
O  0.455596  0.249995  0.204249
O  0.044401  0.749998  0.704256
O  0.544403  0.749995  0.795747
O  0.663052  0.046159  0.217588
O  0.163052  0.453835  0.282409
O  0.336948  0.546156  0.782412
O  0.836949  0.953840  0.717587
O  0.336949  0.953836  0.782411
O  0.836949  0.546154  0.717585
O  0.663051  0.453837  0.217593
O  0.163052  0.046157  0.282407
%ENDBLOCK POSITIONS_FRAC

%BLOCK hubbard_u
   EV
   Fe        d:4.400000
%ENDBLOCK hubbard_u

kpoint_mp_grid :    2   4   5

spectral_kpoint_mp_grid :  2   4   5