# CELL file written 01:50:46 (GMT-5.0) 11th December 2025 from run ml_dos

%BLOCK lattice_cart
   ANG
       10.4867030000000        0.00000000000000        0.00000000000000    
     -0.100000000000000E-05    6.07050600000000        0.00000000000000    
       0.00000000000000       0.100000000000000E-05    4.75489600000000    
%ENDBLOCK lattice_cart

%BLOCK positions_frac
   Li               0.500005000000000       0.000021000000000       0.500027000000000
   Li               0.999996000000000       0.500011000000000       0.000017000000000
   Li               0.499999000000000       0.500017000000000       0.499980000000000
   Li               0.000007000000000       0.000014000000000       0.999983000000000
   O                0.597896000000000       0.249997000000000       0.759534000000000
   O                0.097895000000000       0.249998000000000       0.740464000000000
   O                0.402105000000000       0.749999000000000       0.240469000000000
   O                0.902105000000000       0.749996000000000       0.259532000000000
   O                0.955596000000000       0.249999000000000       0.295753000000000
   O                0.455596000000000       0.249995000000000       0.204249000000000
   O                0.044401000000000       0.749998000000000       0.704256000000000
   O                0.544403000000000       0.749995000000000       0.795747000000000
   O                0.663052000000000       0.046159000000000       0.217588000000000
   O                0.163052000000000       0.453835000000000       0.282409000000000
   O                0.336948000000000       0.546156000000000       0.782412000000000
   O                0.836949000000000       0.953840000000000       0.717587000000000
   O                0.336949000000000       0.953836000000000       0.782411000000000
   O                0.836949000000000       0.546154000000000       0.717585000000000
   O                0.663051000000000       0.453837000000000       0.217593000000000
   O                0.163052000000000       0.046157000000000       0.282407000000000
   P                0.593097000000000       0.249998000000000       0.082735000000000
   P                0.093097000000000       0.249997000000000       0.417263000000000
   P                0.406902000000000       0.749996000000000       0.917267000000000
   P                0.906901000000000       0.749998000000000       0.582735000000000
   Fe               0.779896000000000       0.249998000000000       0.523610000000000 SPIN= 4.500
   Fe               0.279899000000000       0.250000000000000       0.976388000000000 SPIN=-4.500
   Fe               0.220101000000000       0.750001000000000       0.476384000000000 SPIN= 4.500
   Fe               0.720103000000000       0.749997000000000       0.023616000000000 SPIN=-4.500
%ENDBLOCK positions_frac

FIX_COM : true

%BLOCK hubbard_u
   EV
   Fe        d:4.400000
%ENDBLOCK hubbard_u

QUANTISATION_AXIS :     0.000000    0.000000    1.000000

%BLOCK species_pot
   Li        1|1.0|14|16|18|10U:20(qc=7)
   O         2|1.1|17|20|23|20:21(qc=8)
   P         3|1.8|4|4|5|30:31:32
   Fe        3|2.4|2.4|1.0|8|9|10|40:41:32U2U2(qc=5.5)
%ENDBLOCK species_pot

%BLOCK species_lcao_states
   Li        3
   O         2
   P         2
   Fe        3
%ENDBLOCK species_lcao_states

SYMMETRY_TOL :     0.001000

%BLOCK symmetry_ops
# Symm. op. 1       E
          1.000000000000000       0.000000000000000       0.000000000000000
          0.000000000000000       1.000000000000000       0.000000000000000
          0.000000000000000       0.000000000000000       1.000000000000000
          0.000000000000000       0.000000000000000       0.000000000000000
%ENDBLOCK symmetry_ops

kpoint_mp_grid :    2   4   5

phonon_kpoint_mp_grid :    2   4   5

phonon_kpoint_mp_offset :        0.250000000000000       0.125000000000000       0.000000000000000

