# written by ASE

%BLOCK LATTICE_CART
 8.045329  0.000000  0.000000
 3.651108  7.169151  0.000000
-1.078539 -0.661074 14.437907
%ENDBLOCK LATTICE_CART

%BLOCK POSITIONS_FRAC
Fe  0.698497  0.296612  0.372895 spin 5
Fe  0.296612  0.698497  0.872895 spin 5
Fe  0.027674  0.670005  0.539965 spin 5
Fe  0.670005  0.027674  0.039965 spin 5
Fe  0.397482  0.007860  0.709170 spin 5
Fe  0.007860  0.397482  0.209170 spin 5
V  0.403189  0.442023  0.178116
V  0.442023  0.403189  0.678116
V  0.739333  0.664982  0.354040
V  0.664982  0.739333  0.854040
V  0.109994  0.034131  0.517708
V  0.034131  0.109994  0.017708
V  0.670809  0.594108  0.564577
V  0.594108  0.670809  0.064577
V  0.303241  0.250228  0.402802
V  0.250228  0.303241  0.902802
V  0.947539  0.870501  0.238158
V  0.870501  0.947539  0.738158
O  0.155847  0.805483  0.485160
O  0.805483  0.155847  0.985160
O  0.175235  0.480235  0.148261
O  0.480235  0.175235  0.648261
O  0.238837  0.234083  0.286476
O  0.234083  0.238837  0.786476
O  0.901474  0.884418  0.117937
O  0.884418  0.901474  0.617937
O  0.796657  0.072044  0.293129
O  0.072044  0.796657  0.793129
O  0.151031  0.461424  0.447332
O  0.461424  0.151031  0.947332
O  0.616924  0.440750  0.623183
O  0.440750  0.616924  0.123183
O  0.828881  0.418712  0.305532
O  0.418712  0.828881  0.805532
O  0.619537  0.555571  0.442140
O  0.555571  0.619537  0.942140
O  0.534515  0.810238  0.307404
O  0.810238  0.534515  0.807404
O  0.530161  0.814545  0.606448
O  0.814545  0.530161  0.106448
O  0.277546  0.070150  0.457478
O  0.070150  0.277546  0.957478
O  0.913734  0.674977  0.278026
O  0.674977  0.913734  0.778026
O  0.167801  0.835664  0.265917
O  0.835664  0.167801  0.765917
O  0.456204  0.450030  0.296062
O  0.450030  0.456204  0.796062
O  0.892391  0.186470  0.476778
O  0.186470  0.892391  0.976778
O  0.555690  0.233956  0.132417
O  0.233956  0.555690  0.632417
O  0.789377  0.767405  0.458073
O  0.767405  0.789377  0.958073
O  0.154482  0.073614  0.635164
O  0.073614  0.154482  0.135164
O  0.532832  0.208190  0.432214
O  0.208190  0.532832  0.932214
O  0.899556  0.529630  0.597702
O  0.529630  0.899556  0.097702
Li  0.972128  0.311992  0.718275
Li  0.311992  0.972128  0.218275
Li  0.018124  0.641943  0.035852
Li  0.641943  0.018124  0.535852
Li  0.338053  0.704048  0.372407
Li  0.704048  0.338053  0.872407
%ENDBLOCK POSITIONS_FRAC

%BLOCK hubbard_u
   EV
   V         d:3.250000
   Fe        d:5.300000
%ENDBLOCK hubbard_u

KPOINT_MP_GRID: 3 3 2

SPECTRAL_KPOINT_MP_GRID: 3 3 2
