# CELL file written 10:08:58 (GMT-8.0) 3rd November 2025 from run ml_dos

%BLOCK lattice_cart
   ANG
       7.16358000000000        0.00000000000000        0.00000000000000    
     -0.107300000000000E-02    6.73662000000000        0.00000000000000    
     -0.769486000000000      -0.927000000000000E-03    13.3143360000000    
%ENDBLOCK lattice_cart

%BLOCK positions_frac
   Li               0.151862000000000       0.526369000000000       0.875762000000000
   Li               0.848894000000000       0.027497000000000       0.622412000000000
   Li               0.847546000000000       0.474224000000000       0.122046000000000
   Li               0.150506000000000       0.974030000000000       0.375627000000000
   Al               0.703840000000000       0.151109000000000       0.394111000000000
   Al               0.295925000000000       0.649357000000000       0.106497000000000
   Al               0.294514000000000       0.849910000000000       0.606199000000000
   Al               0.705996000000000       0.348293000000000       0.893664000000000
   Cl               0.697366000000000       0.314266000000000       0.532582000000000
   Cl               0.303495000000000       0.810231000000000       0.967307000000000
   Cl               0.302732000000000       0.690133000000000       0.466936000000000
   Cl               0.697865000000000       0.185854000000000       0.032340000000000
   Cl               0.810201000000000       0.859857000000000       0.438494000000000
   Cl               0.188215000000000       0.358036000000000       0.063020000000000
   Cl               0.185372000000000       0.141210000000000       0.563716000000000
   Cl               0.813568000000000       0.639311000000000       0.938434000000000
   Cl               0.919850000000000       0.266102000000000       0.301538000000000
   Cl               0.080221000000000       0.766453000000000       0.198853000000000
   Cl               0.078886000000000       0.731108000000000       0.698031000000000
   Cl               0.922511000000000       0.232412000000000       0.801826000000000
   Cl               0.437187000000000       0.144221000000000       0.312217000000000
   Cl               0.562625000000000       0.642682000000000       0.188668000000000
   Cl               0.561095000000000       0.859356000000000       0.688195000000000
   Cl               0.439729000000000       0.357976000000000       0.811525000000000
%ENDBLOCK positions_frac

FIX_COM : true

%BLOCK species_pot
   Li        1|1.0|14|16|18|10U:20(qc=7)
   Al        3|2.2|2.2|1.4|4|5|5|30:31:32U2U2
   Cl        3|1.8|5|6|7|30:31:32
%ENDBLOCK species_pot

%BLOCK species_lcao_states
   Li        3
   Al        2
   Cl        2
%ENDBLOCK species_lcao_states

SYMMETRY_TOL :     0.001000

%BLOCK symmetry_ops
# Symm. op. 1       E
          1.000000000000000       0.000000000000000       0.000000000000000
          0.000000000000000       1.000000000000000       0.000000000000000
          0.000000000000000       0.000000000000000       1.000000000000000
          0.000000000000000       0.000000000000000       0.000000000000000
%ENDBLOCK symmetry_ops

kpoint_mp_grid :    8   8   4

phonon_kpoint_mp_grid :    8   8   4

phonon_kpoint_mp_offset :        0.062500000000000       0.062500000000000       0.125000000000000

