# written by ASE

%BLOCK LATTICE_CART
 7.163580  0.000000  0.000000
-0.001073  6.736620  0.000000
-0.769486 -0.000927 13.314336
%ENDBLOCK LATTICE_CART

%BLOCK POSITIONS_FRAC
Li  0.151862  0.526369  0.875762
Li  0.848894  0.027497  0.622412
Li  0.847546  0.474224  0.122046
Li  0.150506  0.974030  0.375627
Al  0.703840  0.151109  0.394111
Al  0.295925  0.649357  0.106497
Al  0.294514  0.849910  0.606199
Al  0.705996  0.348293  0.893664
Cl  0.697366  0.314266  0.532582
Cl  0.303495  0.810231  0.967307
Cl  0.302732  0.690133  0.466936
Cl  0.697865  0.185854  0.032340
Cl  0.810201  0.859857  0.438494
Cl  0.188215  0.358036  0.063020
Cl  0.185372  0.141210  0.563716
Cl  0.813568  0.639311  0.938434
Cl  0.919850  0.266102  0.301538
Cl  0.080221  0.766453  0.198853
Cl  0.078886  0.731108  0.698031
Cl  0.922511  0.232412  0.801826
Cl  0.437187  0.144221  0.312217
Cl  0.562625  0.642682  0.188668
Cl  0.561095  0.859356  0.688195
Cl  0.439729  0.357976  0.811525
%ENDBLOCK POSITIONS_FRAC

kpoint_mp_grid :    8   8   4

spectral_kpoint_mp_grid :  8  8  4
