# written by ASE

%BLOCK LATTICE_CART
10.455253  0.000000  0.000000
 0.000002  6.074310  0.000000
 0.000001 -0.000002  4.773286
%ENDBLOCK LATTICE_CART

%BLOCK POSITIONS_FRAC
Li  0.500001  0.000003  0.500002
Li  0.999999  0.500002  0.000003
Li  0.500002  0.500000  0.500001
Li  0.999999  0.000001  0.999999
Fe  0.782262  0.250000  0.529487 spin 4.5
Fe  0.282274  0.249999  0.970512 spin -4.5
Fe  0.217736  0.750002  0.470510 spin 4.5
Fe  0.717726  0.749999  0.029491 spin -4.5
P  0.593254  0.250001  0.088681
P  0.093257  0.249998  0.411327
P  0.406747  0.750001  0.911327
P  0.906745  0.749999  0.588669
O  0.598471  0.249998  0.767409
O  0.098466  0.250000  0.732604
O  0.401527  0.749999  0.232602
O  0.901532  0.749999  0.267394
O  0.954820  0.250002  0.291992
O  0.454814  0.249999  0.207999
O  0.045180  0.750000  0.708010
O  0.545185  0.750000  0.791992
O  0.662904  0.045938  0.222599
O  0.162901  0.454064  0.277389
O  0.337097  0.545944  0.777395
O  0.837098  0.954062  0.722613
O  0.337095  0.954057  0.777393
O  0.837099  0.545937  0.722612
O  0.662905  0.454063  0.222602
O  0.162903  0.045934  0.277387
%ENDBLOCK POSITIONS_FRAC

%BLOCK hubbard_u
   EV
   Fe        d:4.400000
%ENDBLOCK hubbard_u

kpoint_mp_grid :    2   4   5

spectral_kpoint_mp_grid :  2   4   5