# CELL file written 01:35:44 (GMT-5.0) 11th December 2025 from run ml_dos

%BLOCK lattice_cart
   ANG
       10.4552530000000        0.00000000000000        0.00000000000000    
      0.200000000000000E-05    6.07431000000000        0.00000000000000    
      0.100000000000000E-05  -0.200000000000000E-05    4.77328600000000    
%ENDBLOCK lattice_cart

%BLOCK positions_frac
   Li               0.500001000000000       0.000003000000000       0.500002000000000
   Li               0.999999000000000       0.500002000000000       0.000003000000000
   Li               0.500002000000000       0.500000000000000       0.500001000000000
   Li               0.999999000000000       0.000001000000000       0.999999000000000
   O                0.598471000000000       0.249998000000000       0.767409000000000
   O                0.098466000000000       0.250000000000000       0.732604000000000
   O                0.401527000000000       0.749999000000000       0.232602000000000
   O                0.901532000000000       0.749999000000000       0.267394000000000
   O                0.954820000000000       0.250002000000000       0.291992000000000
   O                0.454814000000000       0.249999000000000       0.207999000000000
   O                0.045180000000000       0.750000000000000       0.708010000000000
   O                0.545185000000000       0.750000000000000       0.791992000000000
   O                0.662904000000000       0.045938000000000       0.222599000000000
   O                0.162901000000000       0.454064000000000       0.277389000000000
   O                0.337097000000000       0.545944000000000       0.777395000000000
   O                0.837098000000000       0.954062000000000       0.722613000000000
   O                0.337095000000000       0.954057000000000       0.777393000000000
   O                0.837099000000000       0.545937000000000       0.722612000000000
   O                0.662905000000000       0.454063000000000       0.222602000000000
   O                0.162903000000000       0.045934000000000       0.277387000000000
   P                0.593254000000000       0.250001000000000       0.088681000000000
   P                0.093257000000000       0.249998000000000       0.411327000000000
   P                0.406747000000000       0.750001000000000       0.911327000000000
   P                0.906745000000000       0.749999000000000       0.588669000000000
   Fe               0.782262000000000       0.250000000000000       0.529487000000000 SPIN= 4.500
   Fe               0.282274000000000       0.249999000000000       0.970512000000000 SPIN=-4.500
   Fe               0.217736000000000       0.750002000000000       0.470510000000000 SPIN= 4.500
   Fe               0.717726000000000       0.749999000000000       0.029491000000000 SPIN=-4.500
%ENDBLOCK positions_frac

FIX_COM : true

%BLOCK hubbard_u
   EV
   Fe        d:4.400000
%ENDBLOCK hubbard_u

QUANTISATION_AXIS :     0.000000    0.000000    1.000000

%BLOCK species_pot
   Li        1|1.0|14|16|18|10U:20(qc=7)
   O         2|1.1|17|20|23|20:21(qc=8)
   P         3|1.8|4|4|5|30:31:32
   Fe        3|2.4|2.4|1.0|8|9|10|40:41:32U2U2(qc=5.5)
%ENDBLOCK species_pot

%BLOCK species_lcao_states
   Li        3
   O         2
   P         2
   Fe        3
%ENDBLOCK species_lcao_states

SYMMETRY_TOL :     0.001000

%BLOCK symmetry_ops
# Symm. op. 1       E
          1.000000000000000       0.000000000000000       0.000000000000000
          0.000000000000000       1.000000000000000       0.000000000000000
          0.000000000000000       0.000000000000000       1.000000000000000
          0.000000000000000       0.000000000000000       0.000000000000000
%ENDBLOCK symmetry_ops

kpoint_mp_grid :    2   4   5

phonon_kpoint_mp_grid :    2   4   5

phonon_kpoint_mp_offset :        0.250000000000000       0.125000000000000       0.000000000000000

