# written by ASE

%BLOCK LATTICE_CART
 8.342247  0.000000  0.000000
 4.191468  7.212814  0.000000
 4.191468  2.412076  6.797542
%ENDBLOCK LATTICE_CART

%BLOCK POSITIONS_FRAC
P  0.538466  0.961534  0.250000
P  0.961534  0.250000  0.538466
P  0.250000  0.538466  0.961534
P  0.038466  0.750000  0.461534
P  0.750000  0.461534  0.038466
P  0.461534  0.038466  0.750000
O  0.505830  0.129914  0.299513
O  0.129914  0.299513  0.505830
O  0.299514  0.505830  0.129914
O  0.005830  0.799513  0.629915
O  0.799513  0.629915  0.005830
O  0.629914  0.005831  0.799513
O  0.494170  0.870086  0.700487
O  0.870086  0.700487  0.494170
O  0.700486  0.494170  0.870086
O  0.994170  0.200487  0.370086
O  0.200487  0.370086  0.994170
O  0.370087  0.994170  0.200486
O  0.442586  0.233865  0.578687
O  0.233865  0.578687  0.442586
O  0.578687  0.442586  0.233864
O  0.942586  0.078687  0.733865
O  0.078687  0.733865  0.942586
O  0.733865  0.942586  0.078687
O  0.557414  0.766136  0.421313
O  0.766135  0.421312  0.557414
O  0.421313  0.557414  0.766136
O  0.057414  0.921313  0.266136
O  0.921313  0.266135  0.057414
O  0.266136  0.057414  0.921313
Li  0.500001  0.499999  0.500000
Li  0.999999  0.000000  1.000000
Ge  0.359418  0.359418  0.359417
Ge  0.859417  0.859418  0.859417
Ge  0.640582  0.640582  0.640582
Ge  0.140583  0.140582  0.140582
%ENDBLOCK POSITIONS_FRAC

KPOINT_MP_GRID: 4 4 4

spectral_kpoint_mp_grid: 4 4 4
