# CELL file written 00:59:10 (GMT-5.0) 11th December 2025 from run ml_dos

%BLOCK lattice_cart
   ANG
       8.34224700000000        0.00000000000000        0.00000000000000    
       4.19146800000000        7.21281400000000        0.00000000000000    
       4.19146800000000        2.41207600000000        6.79754200000000    
%ENDBLOCK lattice_cart

%BLOCK positions_frac
   Li               0.500001000000000       0.499999000000000       0.500000000000000
   Li               0.999999000000000       0.000000000000000       1.000000000000000
   O                0.505830000000000       0.129914000000000       0.299513000000000
   O                0.129914000000000       0.299513000000000       0.505830000000000
   O                0.299514000000000       0.505830000000000       0.129914000000000
   O                0.005830000000000       0.799513000000000       0.629915000000000
   O                0.799513000000000       0.629915000000000       0.005830000000000
   O                0.629914000000000       0.005831000000000       0.799513000000000
   O                0.494170000000000       0.870086000000000       0.700487000000000
   O                0.870086000000000       0.700487000000000       0.494170000000000
   O                0.700486000000000       0.494170000000000       0.870086000000000
   O                0.994170000000000       0.200487000000000       0.370086000000000
   O                0.200487000000000       0.370086000000000       0.994170000000000
   O                0.370087000000000       0.994170000000000       0.200486000000000
   O                0.442586000000000       0.233865000000000       0.578687000000000
   O                0.233865000000000       0.578687000000000       0.442586000000000
   O                0.578687000000000       0.442586000000000       0.233864000000000
   O                0.942586000000000       0.078687000000000       0.733865000000000
   O                0.078687000000000       0.733865000000000       0.942586000000000
   O                0.733865000000000       0.942586000000000       0.078687000000000
   O                0.557414000000000       0.766136000000000       0.421313000000000
   O                0.766135000000000       0.421312000000000       0.557414000000000
   O                0.421313000000000       0.557414000000000       0.766136000000000
   O                0.057414000000000       0.921313000000000       0.266136000000000
   O                0.921313000000000       0.266135000000000       0.057414000000000
   O                0.266136000000000       0.057414000000000       0.921313000000000
   P                0.538466000000000       0.961534000000000       0.250000000000000
   P                0.961534000000000       0.250000000000000       0.538466000000000
   P                0.250000000000000       0.538466000000000       0.961534000000000
   P                0.038466000000000       0.750000000000000       0.461534000000000
   P                0.750000000000000       0.461534000000000       0.038466000000000
   P                0.461534000000000       0.038466000000000       0.750000000000000
   Ge               0.359418000000000       0.359418000000000       0.359417000000000
   Ge               0.859417000000000       0.859418000000000       0.859417000000000
   Ge               0.640582000000000       0.640582000000000       0.640582000000000
   Ge               0.140583000000000       0.140582000000000       0.140582000000000
%ENDBLOCK positions_frac

FIX_COM : true

%BLOCK species_pot
   Li        1|1.0|14|16|18|10U:20(qc=7)
   O         2|1.1|17|20|23|20:21(qc=8)
   P         3|1.8|4|4|5|30:31:32
   Ge        3|2.0|10|12|13|40:41:32(qc=6)
%ENDBLOCK species_pot

%BLOCK species_lcao_states
   Li        3
   O         2
   P         2
   Ge        4
%ENDBLOCK species_lcao_states

SYMMETRY_TOL :     0.001000

%BLOCK symmetry_ops
# Symm. op. 1       E
          1.000000000000000       0.000000000000000       0.000000000000000
          0.000000000000000       1.000000000000000       0.000000000000000
          0.000000000000000       0.000000000000000       1.000000000000000
          0.000000000000000       0.000000000000000       0.000000000000000
%ENDBLOCK symmetry_ops

kpoint_mp_grid :    4   4   4

phonon_kpoint_mp_grid :    4   4   4

phonon_kpoint_mp_offset :        0.125000000000000       0.125000000000000       0.125000000000000

