# CELL file written 01:18:28 (GMT-5.0) 11th December 2025 from run ml_dos

%BLOCK lattice_cart
   ANG
       10.1671530000000        0.00000000000000        0.00000000000000    
     -0.230000000000000E-04    5.96297500000000        0.00000000000000    
      0.700000000000000E-05  -0.600000000000000E-05    4.83062900000000    
%ENDBLOCK lattice_cart

%BLOCK positions_frac
   O                0.626016000000000       0.250027000000000       0.759579000000000
   O                0.125982000000000       0.250002000000000       0.740435000000000
   O                0.373974000000000       0.749997000000000       0.240428000000000
   O                0.874016000000000       0.749956000000000       0.259551000000000
   O                0.955059000000000       0.250060000000000       0.359048000000000
   O                0.455055000000000       0.250006000000000       0.140867000000000
   O                0.044938000000000       0.749965000000000       0.640946000000000
   O                0.544945000000000       0.749978000000000       0.859128000000000
   O                0.675713000000000       0.050312000000000       0.219101000000000
   O                0.175736000000000       0.449691000000000       0.280881000000000
   O                0.324297000000000       0.550291000000000       0.780874000000000
   O                0.824283000000000       0.949680000000000       0.719054000000000
   O                0.324296000000000       0.949686000000000       0.780874000000000
   O                0.824289000000000       0.550284000000000       0.719130000000000
   O                0.675679000000000       0.449733000000000       0.219154000000000
   O                0.175706000000000       0.050307000000000       0.280910000000000
   P                0.601820000000000       0.250023000000000       0.071011000000000
   P                0.101818000000000       0.250023000000000       0.428984000000000
   P                0.398182000000000       0.749987000000000       0.929002000000000
   P                0.898182000000000       0.749962000000000       0.571000000000000
   Fe               0.780048000000000       0.249977000000000       0.523034000000000 SPIN= 4.500
   Fe               0.280032000000000       0.250014000000000       0.976926000000000 SPIN=-4.500
   Fe               0.219963000000000       0.750032000000000       0.477001000000000 SPIN= 4.500
   Fe               0.719972000000000       0.750006000000000       0.023084000000000 SPIN=-4.500
%ENDBLOCK positions_frac

FIX_COM : true

%BLOCK hubbard_u
   EV
   Fe        d:4.400000
%ENDBLOCK hubbard_u

QUANTISATION_AXIS :     0.000000    0.000000    1.000000

%BLOCK species_pot
   O         2|1.1|17|20|23|20:21(qc=8)
   P         3|1.8|4|4|5|30:31:32
   Fe        3|2.4|2.4|1.0|8|9|10|40:41:32U2U2(qc=5.5)
%ENDBLOCK species_pot

%BLOCK species_lcao_states
   O         2
   P         2
   Fe        3
%ENDBLOCK species_lcao_states

SYMMETRY_TOL :     0.001000

%BLOCK symmetry_ops
# Symm. op. 1       E
          1.000000000000000       0.000000000000000       0.000000000000000
          0.000000000000000       1.000000000000000       0.000000000000000
          0.000000000000000       0.000000000000000       1.000000000000000
          0.000000000000000       0.000000000000000       0.000000000000000
%ENDBLOCK symmetry_ops

kpoint_mp_grid :    3   4   5

phonon_kpoint_mp_grid :    3   4   5

phonon_kpoint_mp_offset :        0.000000000000000       0.125000000000000       0.000000000000000

