# written by ASE

%BLOCK LATTICE_CART
10.167153  0.000000  0.000000
-0.000023  5.962975  0.000000
 0.000007 -0.000006  4.830629
%ENDBLOCK LATTICE_CART

%BLOCK POSITIONS_FRAC
Fe  0.780048  0.249977  0.523034 spin 4.5
Fe  0.280032  0.250014  0.976926 spin -4.5
Fe  0.219963  0.750032  0.477001 spin 4.5
Fe  0.719972  0.750006  0.023084 spin -4.5
P  0.601820  0.250023  0.071011
P  0.101818  0.250023  0.428984
P  0.398182  0.749987  0.929002
P  0.898182  0.749962  0.571000
O  0.626016  0.250027  0.759579
O  0.125982  0.250002  0.740435
O  0.373974  0.749997  0.240428
O  0.874016  0.749956  0.259551
O  0.955059  0.250060  0.359048
O  0.455055  0.250006  0.140867
O  0.044938  0.749965  0.640946
O  0.544945  0.749978  0.859128
O  0.675713  0.050312  0.219101
O  0.175736  0.449691  0.280881
O  0.324297  0.550291  0.780874
O  0.824283  0.949680  0.719054
O  0.324296  0.949686  0.780874
O  0.824289  0.550284  0.719130
O  0.675679  0.449733  0.219154
O  0.175706  0.050307  0.280910
%ENDBLOCK POSITIONS_FRAC

%BLOCK hubbard_u
   EV
   Fe        d:4.400000
%ENDBLOCK hubbard_u

kpoint_mp_grid :    3   4   5

spectral_kpoint_mp_grid :    3   4   5