# CELL file written 23:41:44 (GMT-5.0) 19th February 2026 from run ml_dos

%BLOCK lattice_cart
   ANG
       9.97277600000000        0.00000000000000        0.00000000000000    
     -0.714000000000000E-03    5.91138300000000        0.00000000000000    
      0.942000000000000E-03  -0.299000000000000E-03    4.87168400000000    
%ENDBLOCK lattice_cart

%BLOCK positions_frac
   O                0.621698000000000       0.249906000000000       0.782412000000000
   O                0.121538000000000       0.250353000000000       0.717853000000000
   O                0.378005000000000       0.750139000000000       0.217573000000000
   O                0.878692000000000       0.750338000000000       0.281924000000000
   O                0.945655000000000       0.250564000000000       0.348013000000000
   O                0.446278000000000       0.250601000000000       0.149806000000000
   O                0.054235000000000       0.749251000000000       0.651829000000000
   O                0.554117000000000       0.749828000000000       0.850278000000000
   O                0.670276000000000       0.047187000000000       0.237498000000000
   O                0.170030000000000       0.452837000000000       0.261483000000000
   O                0.329901000000000       0.547067000000000       0.761982000000000
   O                0.829884000000000       0.952862000000000       0.738430000000000
   O                0.329652000000000       0.952537000000000       0.762573000000000
   O                0.830039000000000       0.546667000000000       0.739095000000000
   O                0.670028000000000       0.453016000000000       0.237914000000000
   O                0.170341000000000       0.047085000000000       0.261464000000000
   P                0.596429000000000       0.250350000000000       0.090018000000000
   P                0.096207000000000       0.250236000000000       0.408485000000000
   P                0.403692000000000       0.749904000000000       0.910001000000000
   P                0.903751000000000       0.749566000000000       0.591442000000000
   Fe               0.774921000000000       0.249082000000000       0.540582000000000 SPIN= 4.500
   Fe               0.275218000000000       0.249518000000000       0.958482000000000 SPIN=-4.500
   Fe               0.224569000000000       0.750221000000000       0.459722000000000 SPIN= 4.500
   Fe               0.724844000000000       0.750877000000000       0.041144000000000 SPIN=-4.500
%ENDBLOCK positions_frac

FIX_COM : true

%BLOCK hubbard_u
   EV
   Fe        d:4.400000
%ENDBLOCK hubbard_u

QUANTISATION_AXIS :     0.000000    0.000000    1.000000

%BLOCK species_pot
   O         2|1.1|17|20|23|20:21(qc=8)
   P         3|1.8|4|4|5|30:31:32
   Fe        3|2.4|2.4|1.0|8|9|10|40:41:32U2U2(qc=5.5)
%ENDBLOCK species_pot

%BLOCK species_lcao_states
   O         2
   P         2
   Fe        3
%ENDBLOCK species_lcao_states

SYMMETRY_TOL :     0.001000

%BLOCK symmetry_ops
# Symm. op. 1       E
          1.000000000000000       0.000000000000000       0.000000000000000
          0.000000000000000       1.000000000000000       0.000000000000000
          0.000000000000000       0.000000000000000       1.000000000000000
          0.000000000000000       0.000000000000000       0.000000000000000
%ENDBLOCK symmetry_ops

kpoint_mp_grid :    3   4   5

phonon_kpoint_mp_grid :    3   4   5

phonon_kpoint_mp_offset :        0.000000000000000       0.125000000000000       0.000000000000000

