# written by ASE

%BLOCK LATTICE_CART
 9.972776  0.000000  0.000000
-0.000714  5.911383  0.000000
 0.000942 -0.000299  4.871684
%ENDBLOCK LATTICE_CART

%BLOCK POSITIONS_FRAC
Fe  0.774921  0.249082  0.540582 spin 4.5
Fe  0.275218  0.249518  0.958482 spin -4.5
Fe  0.224569  0.750221  0.459722 spin 4.5
Fe  0.724844  0.750877  0.041144 spin -4.5
P  0.596429  0.250350  0.090018
P  0.096207  0.250236  0.408485
P  0.403692  0.749904  0.910001
P  0.903751  0.749566  0.591442
O  0.621698  0.249906  0.782412
O  0.121538  0.250353  0.717853
O  0.378005  0.750139  0.217573
O  0.878692  0.750338  0.281924
O  0.945655  0.250564  0.348013
O  0.446278  0.250601  0.149806
O  0.054235  0.749251  0.651829
O  0.554117  0.749828  0.850278
O  0.670276  0.047187  0.237498
O  0.170030  0.452837  0.261483
O  0.329901  0.547067  0.761982
O  0.829884  0.952862  0.738430
O  0.329652  0.952537  0.762573
O  0.830039  0.546667  0.739095
O  0.670028  0.453016  0.237914
O  0.170341  0.047085  0.261464
%ENDBLOCK POSITIONS_FRAC

%BLOCK hubbard_u
   EV
   Fe        d:4.400000
%ENDBLOCK hubbard_u

kpoint_mp_grid :    3   4   5

spectral_kpoint_mp_grid :    3   4   5
