# written by ASE

%BLOCK LATTICE_CART
 8.579849  0.000000  0.000000
 4.217646  7.471632  0.000000
 4.217649  2.462405  7.054215
%ENDBLOCK LATTICE_CART

%BLOCK POSITIONS_FRAC
Ti  0.359333  0.359333  0.359340
Ti  0.859335  0.859334  0.859335
Ti  0.640671  0.640656  0.640660
Ti  0.140665  0.140659  0.140667
P  0.539877  0.960123  0.249999
P  0.960122  0.250000  0.539878
P  0.250004  0.539876  0.960122
P  0.039878  0.749997  0.460124
P  0.750003  0.460120  0.039880
P  0.460120  0.039872  0.750006
O  0.496621  0.124749  0.308690
O  0.124756  0.308677  0.496629
O  0.308671  0.496632  0.124760
O  0.996623  0.808684  0.624750
O  0.808681  0.624753  0.996630
O  0.624754  0.996625  0.808680
O  0.503373  0.875244  0.691323
O  0.875245  0.691323  0.503369
O  0.691325  0.503373  0.875248
O  0.003375  0.191323  0.375247
O  0.191320  0.375250  0.003372
O  0.375245  0.003375  0.191320
O  0.444621  0.231013  0.586246
O  0.231024  0.586241  0.444612
O  0.586240  0.444614  0.231019
O  0.944617  0.086244  0.731019
O  0.086242  0.731016  0.944619
O  0.731019  0.944615  0.086241
O  0.555383  0.768979  0.413753
O  0.768979  0.413762  0.555384
O  0.413764  0.555387  0.768977
O  0.055383  0.913761  0.268987
O  0.913761  0.268976  0.055387
O  0.268973  0.055384  0.913764
Li  0.500004  0.500016  0.499975
Li  0.999993  0.000015  0.999990
%ENDBLOCK POSITIONS_FRAC

KPOINT_MP_GRID: 4 4 4

spectral_kpoint_mp_grid: 4 4 4
