# CELL file written 03:25:04 (GMT-4.0) 30th October 2025 from run ml_dos

%BLOCK lattice_cart
   ANG
       8.57984900000000        0.00000000000000        0.00000000000000    
       4.21764600000000        7.47163200000000        0.00000000000000    
       4.21764900000000        2.46240500000000        7.05421500000000    
%ENDBLOCK lattice_cart

%BLOCK positions_frac
   Li               0.500004000000000       0.500016000000000       0.499975000000000
   Li               0.999993000000000       0.000015000000000       0.999990000000000
   O                0.496621000000000       0.124749000000000       0.308690000000000
   O                0.124756000000000       0.308677000000000       0.496629000000000
   O                0.308671000000000       0.496632000000000       0.124760000000000
   O                0.996623000000000       0.808684000000000       0.624750000000000
   O                0.808681000000000       0.624753000000000       0.996630000000000
   O                0.624754000000000       0.996625000000000       0.808680000000000
   O                0.503373000000000       0.875244000000000       0.691323000000000
   O                0.875245000000000       0.691323000000000       0.503369000000000
   O                0.691325000000000       0.503373000000000       0.875248000000000
   O                0.003375000000000       0.191323000000000       0.375247000000000
   O                0.191320000000000       0.375250000000000       0.003372000000000
   O                0.375245000000000       0.003375000000000       0.191320000000000
   O                0.444621000000000       0.231013000000000       0.586246000000000
   O                0.231024000000000       0.586241000000000       0.444612000000000
   O                0.586240000000000       0.444614000000000       0.231019000000000
   O                0.944617000000000       0.086244000000000       0.731019000000000
   O                0.086242000000000       0.731016000000000       0.944619000000000
   O                0.731019000000000       0.944615000000000       0.086241000000000
   O                0.555383000000000       0.768979000000000       0.413753000000000
   O                0.768979000000000       0.413762000000000       0.555384000000000
   O                0.413764000000000       0.555387000000000       0.768977000000000
   O                0.055383000000000       0.913761000000000       0.268987000000000
   O                0.913761000000000       0.268976000000000       0.055387000000000
   O                0.268973000000000       0.055384000000000       0.913764000000000
   P                0.539877000000000       0.960123000000000       0.249999000000000
   P                0.960122000000000       0.250000000000000       0.539878000000000
   P                0.250004000000000       0.539876000000000       0.960122000000000
   P                0.039878000000000       0.749997000000000       0.460124000000000
   P                0.750003000000000       0.460120000000000       0.039880000000000
   P                0.460120000000000       0.039872000000000       0.750006000000000
   Ti               0.359333000000000       0.359333000000000       0.359340000000000
   Ti               0.859335000000000       0.859334000000000       0.859335000000000
   Ti               0.640671000000000       0.640656000000000       0.640660000000000
   Ti               0.140665000000000       0.140659000000000       0.140667000000000
%ENDBLOCK positions_frac

FIX_COM : true

%BLOCK species_pot
   Li        1|1.0|14|16|18|10U:20(qc=7)
   O         2|1.1|17|20|23|20:21(qc=8)
   P         3|1.8|4|4|5|30:31:32
   Ti        3|1.8|9|10|11|30U:40:31:32(qc=5.5)
%ENDBLOCK species_pot

%BLOCK species_lcao_states
   Li        3
   O         2
   P         2
   Ti        5
%ENDBLOCK species_lcao_states

SYMMETRY_TOL :     0.001000

%BLOCK symmetry_ops
# Symm. op. 1       E
          1.000000000000000       0.000000000000000       0.000000000000000
          0.000000000000000       1.000000000000000       0.000000000000000
          0.000000000000000       0.000000000000000       1.000000000000000
          0.000000000000000       0.000000000000000       0.000000000000000
%ENDBLOCK symmetry_ops

kpoint_mp_grid :    4   4   4

phonon_kpoint_mp_grid :    4   4   4

phonon_kpoint_mp_offset :        0.125000000000000       0.125000000000000       0.125000000000000

