# CELL file written 12:51:34 (GMT-5.0) 20th February 2026 from run ml_dos

%BLOCK lattice_cart
   ANG
       9.96752700000000        0.00000000000000        0.00000000000000    
       0.00000000000000        5.92272100000000        0.00000000000000    
       0.00000000000000        0.00000000000000        4.89513100000000    
%ENDBLOCK lattice_cart

%BLOCK positions_frac
   O                0.622211000000000       0.250000000000000       0.781194000000000
   O                0.122211000000000       0.250000000000000       0.718806000000000
   O                0.377789000000000       0.750000000000000       0.218806000000000
   O                0.877789000000000       0.750000000000000       0.281194000000000
   O                0.947035000000000       0.250000000000000       0.350478000000000
   O                0.447035000000000       0.250000000000000       0.149522000000000
   O                0.052965000000000       0.750000000000000       0.649522000000000
   O                0.552965000000000       0.750000000000000       0.850478000000000
   O                0.671146000000000       0.047571000000000       0.235779000000000
   O                0.171146000000000       0.452429000000000       0.264221000000000
   O                0.328854000000000       0.547571000000000       0.764221000000000
   O                0.828854000000000       0.952429000000000       0.735779000000000
   O                0.328854000000000       0.952429000000000       0.764221000000000
   O                0.828854000000000       0.547571000000000       0.735779000000000
   O                0.671146000000000       0.452429000000000       0.235779000000000
   O                0.171146000000000       0.047571000000000       0.264221000000000
   P                0.597348000000000       0.250000000000000       0.088803000000000
   P                0.097348000000000       0.250000000000000       0.411197000000000
   P                0.402652000000000       0.750000000000000       0.911197000000000
   P                0.902652000000000       0.750000000000000       0.588803000000000
   Fe               0.774942000000000       0.250000000000000       0.537684000000000 SPIN= 4.500
   Fe               0.274942000000000       0.250000000000000       0.962316000000000 SPIN=-4.500
   Fe               0.225058000000000       0.750000000000000       0.462316000000000 SPIN= 4.500
   Fe               0.725058000000000       0.750000000000000       0.037684000000000 SPIN=-4.500
%ENDBLOCK positions_frac

FIX_COM : true

%BLOCK hubbard_u
   EV
   Fe        d:4.400000
%ENDBLOCK hubbard_u

QUANTISATION_AXIS :     0.000000    0.000000    1.000000

%BLOCK species_pot
   O         2|1.1|17|20|23|20:21(qc=8)
   P         3|1.8|4|4|5|30:31:32
   Fe        3|2.4|2.4|1.0|8|9|10|40:41:32U2U2(qc=5.5)
%ENDBLOCK species_pot

%BLOCK species_lcao_states
   O         2
   P         2
   Fe        3
%ENDBLOCK species_lcao_states

SYMMETRY_TOL :     0.001000

%BLOCK symmetry_ops
# Symm. op. 1       E
          1.000000000000000       0.000000000000000       0.000000000000000
          0.000000000000000       1.000000000000000       0.000000000000000
          0.000000000000000       0.000000000000000       1.000000000000000
          0.000000000000000       0.000000000000000       0.000000000000000
%ENDBLOCK symmetry_ops

kpoint_mp_grid :    3   4   5

phonon_kpoint_mp_grid :    3   4   5

phonon_kpoint_mp_offset :        0.000000000000000       0.125000000000000       0.000000000000000

