# written by ASE

%BLOCK LATTICE_CART
 9.967527  0.000000  0.000000
 0.000000  5.922721  0.000000
 0.000000  0.000000  4.895131
%ENDBLOCK LATTICE_CART

%BLOCK POSITIONS_FRAC
Fe  0.774942  0.250000  0.537684 spin 4.5
Fe  0.274942  0.250000  0.962316 spin -4.5
Fe  0.225058  0.750000  0.462316 spin 4.5
Fe  0.725058  0.750000  0.037684 spin -4.5
P  0.597348  0.250000  0.088803
P  0.097348  0.250000  0.411197
P  0.402652  0.750000  0.911197
P  0.902652  0.750000  0.588803
O  0.622211  0.250000  0.781194
O  0.122211  0.250000  0.718806
O  0.377789  0.750000  0.218806
O  0.877789  0.750000  0.281194
O  0.947035  0.250000  0.350478
O  0.447035  0.250000  0.149522
O  0.052965  0.750000  0.649522
O  0.552965  0.750000  0.850478
O  0.671146  0.047571  0.235779
O  0.171146  0.452429  0.264221
O  0.328854  0.547571  0.764221
O  0.828854  0.952429  0.735779
O  0.328854  0.952429  0.764221
O  0.828854  0.547571  0.735779
O  0.671146  0.452429  0.235779
O  0.171146  0.047571  0.264221
%ENDBLOCK POSITIONS_FRAC

%BLOCK hubbard_u
   EV
   Fe        d:4.400000
%ENDBLOCK hubbard_u

kpoint_mp_grid :    3   4   5

spectral_kpoint_mp_grid :    3   4   5