# written by ASE

%BLOCK LATTICE_CART
 8.144510  0.000000  0.000000
 3.768422  7.220252  0.000000
-1.047569 -0.634917 14.348382
%ENDBLOCK LATTICE_CART

%BLOCK POSITIONS_FRAC
Fe  0.693875  0.299462  0.375745 spin 4.5
Fe  0.299466  0.693875  0.875744 spin 4.5
Fe  0.038740  0.661047  0.535623 spin 4.5
Fe  0.661049  0.038735  0.035622 spin 4.5
Fe  0.398232  0.039846  0.708101 spin 4.5
Fe  0.039847  0.398231  0.208101 spin 4.5
V  0.410807  0.467406  0.170834 spin 1
V  0.467406  0.410808  0.670835 spin 1
V  0.741433  0.646095  0.352184 spin 1
V  0.646095  0.741431  0.852185 spin 1
V  0.111372  0.031916  0.511678 spin 1
V  0.031915  0.111372  0.011678 spin 1
V  0.693698  0.609983  0.559164 spin 1
V  0.609986  0.693698  0.059162 spin 1
V  0.312786  0.242370  0.401513 spin 1
V  0.242366  0.312786  0.901515 spin 1
V  0.946051  0.862615  0.240204 spin 1
V  0.862616  0.946050  0.740204 spin 1
O  0.147020  0.808699  0.478049
O  0.808700  0.147020  0.978049
O  0.191597  0.493416  0.141184
O  0.493417  0.191598  0.641184
O  0.282732  0.214859  0.282374
O  0.214859  0.282732  0.782375
O  0.898829  0.883669  0.120062
O  0.883669  0.898830  0.620061
O  0.777969  0.076434  0.286570
O  0.076435  0.777969  0.786570
O  0.156504  0.455462  0.443331
O  0.455461  0.156505  0.943331
O  0.647310  0.442378  0.622422
O  0.442377  0.647310  0.122423
O  0.824170  0.409869  0.298658
O  0.409870  0.824169  0.798660
O  0.616886  0.554560  0.440842
O  0.554555  0.616885  0.940841
O  0.549354  0.809263  0.302526
O  0.809264  0.549353  0.802526
O  0.540582  0.816151  0.604634
O  0.816152  0.540581  0.104634
O  0.282324  0.065210  0.455130
O  0.065212  0.282325  0.955130
O  0.920785  0.674157  0.284636
O  0.674157  0.920785  0.784635
O  0.160145  0.839942  0.268002
O  0.839942  0.160144  0.768002
O  0.457603  0.459008  0.290421
O  0.459007  0.457605  0.790420
O  0.894957  0.188547  0.472205
O  0.188546  0.894961  0.972204
O  0.576830  0.253422  0.127287
O  0.253423  0.576828  0.627286
O  0.791782  0.738014  0.465954
O  0.738013  0.791789  0.965955
O  0.148237  0.057447  0.631556
O  0.057447  0.148238  0.131556
O  0.538552  0.203892  0.433446
O  0.203892  0.538553  0.933445
O  0.922157  0.530101  0.609237
O  0.530101  0.922157  0.109236
Li  0.915438  0.292027  0.683790
Li  0.292028  0.915439  0.183791
Li  0.012785  0.643392  0.037320
Li  0.643391  0.012787  0.537320
Li  0.337936  0.702440  0.371467
Li  0.702439  0.337937  0.871467
Li  0.537410  0.041837  0.237427
Li  0.041837  0.537410  0.737427
Li  0.812217  0.234319  0.189768
Li  0.234321  0.812215  0.689767
%ENDBLOCK POSITIONS_FRAC

%BLOCK hubbard_u
   EV
   V         d:3.250000
   Fe        d:5.300000
%ENDBLOCK hubbard_u

KPOINT_MP_GRID: 3 3 2

SPECTRAL_KPOINT_MP_GRID: 3 3 2
