# CELL file written 05:57:25 (GMT-5.0) 22nd December 2025 from run ml_dos

%BLOCK lattice_cart
   ANG
       8.14451000000000        0.00000000000000        0.00000000000000    
       3.76842200000000        7.22025200000000        0.00000000000000    
      -1.04756900000000      -0.634917000000000        14.3483820000000    
%ENDBLOCK lattice_cart

%BLOCK positions_frac
   Li               0.915438000000000       0.292027000000000       0.683790000000000
   Li               0.292028000000000       0.915439000000000       0.183791000000000
   Li               0.012785000000000       0.643392000000000       0.037320000000000
   Li               0.643391000000000       0.012787000000000       0.537320000000000
   Li               0.337936000000000       0.702440000000000       0.371467000000000
   Li               0.702439000000000       0.337937000000000       0.871467000000000
   Li               0.537410000000000       0.041837000000000       0.237427000000000
   Li               0.041837000000000       0.537410000000000       0.737427000000000
   Li               0.812217000000000       0.234319000000000       0.189768000000000
   Li               0.234321000000000       0.812215000000000       0.689767000000000
   O                0.147020000000000       0.808699000000000       0.478049000000000
   O                0.808700000000000       0.147020000000000       0.978049000000000
   O                0.191597000000000       0.493416000000000       0.141184000000000
   O                0.493417000000000       0.191598000000000       0.641184000000000
   O                0.282732000000000       0.214859000000000       0.282374000000000
   O                0.214859000000000       0.282732000000000       0.782375000000000
   O                0.898829000000000       0.883669000000000       0.120062000000000
   O                0.883669000000000       0.898830000000000       0.620061000000000
   O                0.777969000000000       0.076434000000000       0.286570000000000
   O                0.076435000000000       0.777969000000000       0.786570000000000
   O                0.156504000000000       0.455462000000000       0.443331000000000
   O                0.455461000000000       0.156505000000000       0.943331000000000
   O                0.647310000000000       0.442378000000000       0.622422000000000
   O                0.442377000000000       0.647310000000000       0.122423000000000
   O                0.824170000000000       0.409869000000000       0.298658000000000
   O                0.409870000000000       0.824169000000000       0.798660000000000
   O                0.616886000000000       0.554560000000000       0.440842000000000
   O                0.554555000000000       0.616885000000000       0.940841000000000
   O                0.549354000000000       0.809263000000000       0.302526000000000
   O                0.809264000000000       0.549353000000000       0.802526000000000
   O                0.540582000000000       0.816151000000000       0.604634000000000
   O                0.816152000000000       0.540581000000000       0.104634000000000
   O                0.282324000000000       0.065210000000000       0.455130000000000
   O                0.065212000000000       0.282325000000000       0.955130000000000
   O                0.920785000000000       0.674157000000000       0.284636000000000
   O                0.674157000000000       0.920785000000000       0.784635000000000
   O                0.160145000000000       0.839942000000000       0.268002000000000
   O                0.839942000000000       0.160144000000000       0.768002000000000
   O                0.457603000000000       0.459008000000000       0.290421000000000
   O                0.459007000000000       0.457605000000000       0.790420000000000
   O                0.894957000000000       0.188547000000000       0.472205000000000
   O                0.188546000000000       0.894961000000000       0.972204000000000
   O                0.576830000000000       0.253422000000000       0.127287000000000
   O                0.253423000000000       0.576828000000000       0.627286000000000
   O                0.791782000000000       0.738014000000000       0.465954000000000
   O                0.738013000000000       0.791789000000000       0.965955000000000
   O                0.148237000000000       0.057447000000000       0.631556000000000
   O                0.057447000000000       0.148238000000000       0.131556000000000
   O                0.538552000000000       0.203892000000000       0.433446000000000
   O                0.203892000000000       0.538553000000000       0.933445000000000
   O                0.922157000000000       0.530101000000000       0.609237000000000
   O                0.530101000000000       0.922157000000000       0.109236000000000
   V                0.410807000000000       0.467406000000000       0.170834000000000 SPIN= 1.000
   V                0.467406000000000       0.410808000000000       0.670835000000000 SPIN= 1.000
   V                0.741433000000000       0.646095000000000       0.352184000000000 SPIN= 1.000
   V                0.646095000000000       0.741431000000000       0.852185000000000 SPIN= 1.000
   V                0.111372000000000       0.031916000000000       0.511678000000000 SPIN= 1.000
   V                0.031915000000000       0.111372000000000       0.011678000000000 SPIN= 1.000
   V                0.693698000000000       0.609983000000000       0.559164000000000 SPIN= 1.000
   V                0.609986000000000       0.693698000000000       0.059162000000000 SPIN= 1.000
   V                0.312786000000000       0.242370000000000       0.401513000000000 SPIN= 1.000
   V                0.242366000000000       0.312786000000000       0.901515000000000 SPIN= 1.000
   V                0.946051000000000       0.862615000000000       0.240204000000000 SPIN= 1.000
   V                0.862616000000000       0.946050000000000       0.740204000000000 SPIN= 1.000
   Fe               0.693875000000000       0.299462000000000       0.375745000000000 SPIN= 4.500
   Fe               0.299466000000000       0.693875000000000       0.875744000000000 SPIN= 4.500
   Fe               0.038740000000000       0.661047000000000       0.535623000000000 SPIN= 4.500
   Fe               0.661049000000000       0.038735000000000       0.035622000000000 SPIN= 4.500
   Fe               0.398232000000000       0.039846000000000       0.708101000000000 SPIN= 4.500
   Fe               0.039847000000000       0.398231000000000       0.208101000000000 SPIN= 4.500
%ENDBLOCK positions_frac

FIX_COM : true

%BLOCK hubbard_u
   EV
   V         d:3.250000
   Fe        d:5.300000
%ENDBLOCK hubbard_u

QUANTISATION_AXIS :     0.000000    0.000000    1.000000

%BLOCK species_pot
   Li        1|1.0|14|16|18|10U:20(qc=7)
   O         2|1.1|17|20|23|20:21(qc=8)
   V         3|1.8|1.8|0.6|12|14|16|30U:40:31:32(qc=7)
   Fe        3|2.4|2.4|1.0|8|9|10|40:41:32U2U2(qc=5.5)
%ENDBLOCK species_pot

%BLOCK species_lcao_states
   Li        3
   O         2
   V         5
   Fe        3
%ENDBLOCK species_lcao_states

SYMMETRY_TOL :     0.001000

%BLOCK symmetry_ops
# Symm. op. 1       E
          1.000000000000000       0.000000000000000       0.000000000000000
          0.000000000000000       1.000000000000000       0.000000000000000
          0.000000000000000       0.000000000000000       1.000000000000000
          0.000000000000000       0.000000000000000       0.000000000000000
%ENDBLOCK symmetry_ops

kpoint_mp_grid :    3   3   2

phonon_kpoint_mp_grid :    3   3   2

phonon_kpoint_mp_offset :        0.000000000000000       0.000000000000000       0.250000000000000

