# CELL file written 01:19:58 (GMT-5.0) 11th December 2025 from run ml_dos

%BLOCK lattice_cart
   ANG
       9.98780700000000        0.00000000000000        0.00000000000000    
     -0.300000000000000E-05    5.90592200000000        0.00000000000000    
      0.600000000000000E-05  -0.700000000000000E-05    4.87506400000000    
%ENDBLOCK lattice_cart

%BLOCK positions_frac
   O                0.621067000000000       0.250028000000000       0.779499000000000
   O                0.121063000000000       0.249990000000000       0.720494000000000
   O                0.378935000000000       0.750002000000000       0.220518000000000
   O                0.878930000000000       0.750019000000000       0.279500000000000
   O                0.946547000000000       0.249983000000000       0.349049000000000
   O                0.446545000000000       0.249998000000000       0.150943000000000
   O                0.053454000000000       0.750003000000000       0.650947000000000
   O                0.553452000000000       0.749988000000000       0.849054000000000
   O                0.670021000000000       0.047046000000000       0.236355000000000
   O                0.170020000000000       0.452956000000000       0.263627000000000
   O                0.329976000000000       0.547054000000000       0.763630000000000
   O                0.829974000000000       0.952946000000000       0.736387000000000
   O                0.329981000000000       0.952948000000000       0.763632000000000
   O                0.829988000000000       0.547037000000000       0.736362000000000
   O                0.670018000000000       0.452955000000000       0.236392000000000
   O                0.170021000000000       0.047043000000000       0.263605000000000
   P                0.596454000000000       0.250006000000000       0.088319000000000
   P                0.096456000000000       0.249995000000000       0.411672000000000
   P                0.403546000000000       0.749997000000000       0.911699000000000
   P                0.903547000000000       0.750003000000000       0.588317000000000
   Fe               0.774244000000000       0.250002000000000       0.536578000000000 SPIN= 4.500
   Fe               0.274242000000000       0.249993000000000       0.963422000000000 SPIN=-4.500
   Fe               0.225761000000000       0.750004000000000       0.463424000000000 SPIN= 4.500
   Fe               0.725759000000000       0.750004000000000       0.036576000000000 SPIN=-4.500
%ENDBLOCK positions_frac

FIX_COM : true

%BLOCK hubbard_u
   EV
   Fe        d:4.400000
%ENDBLOCK hubbard_u

QUANTISATION_AXIS :     0.000000    0.000000    1.000000

%BLOCK species_pot
   O         2|1.1|17|20|23|20:21(qc=8)
   P         3|1.8|4|4|5|30:31:32
   Fe        3|2.4|2.4|1.0|8|9|10|40:41:32U2U2(qc=5.5)
%ENDBLOCK species_pot

%BLOCK species_lcao_states
   O         2
   P         2
   Fe        3
%ENDBLOCK species_lcao_states

SYMMETRY_TOL :     0.001000

%BLOCK symmetry_ops
# Symm. op. 1       E
          1.000000000000000       0.000000000000000       0.000000000000000
          0.000000000000000       1.000000000000000       0.000000000000000
          0.000000000000000       0.000000000000000       1.000000000000000
          0.000000000000000       0.000000000000000       0.000000000000000
%ENDBLOCK symmetry_ops

kpoint_mp_grid :    3   4   5

phonon_kpoint_mp_grid :    3   4   5

phonon_kpoint_mp_offset :        0.000000000000000       0.125000000000000       0.000000000000000

