# written by ASE

%BLOCK LATTICE_CART
 9.987807  0.000000  0.000000
-0.000003  5.905922  0.000000
 0.000006 -0.000007  4.875064
%ENDBLOCK LATTICE_CART

%BLOCK POSITIONS_FRAC
Fe  0.774244  0.250002  0.536578 spin 4.5
Fe  0.274242  0.249993  0.963422 spin -4.5
Fe  0.225761  0.750004  0.463424 spin 4.5
Fe  0.725759  0.750004  0.036576 spin -4.5
P  0.596454  0.250006  0.088319
P  0.096456  0.249995  0.411672
P  0.403546  0.749997  0.911699
P  0.903547  0.750003  0.588317
O  0.621067  0.250028  0.779499
O  0.121063  0.249990  0.720494
O  0.378935  0.750002  0.220518
O  0.878930  0.750019  0.279500
O  0.946547  0.249983  0.349049
O  0.446545  0.249998  0.150943
O  0.053454  0.750003  0.650947
O  0.553452  0.749988  0.849054
O  0.670021  0.047046  0.236355
O  0.170020  0.452956  0.263627
O  0.329976  0.547054  0.763630
O  0.829974  0.952946  0.736387
O  0.329981  0.952948  0.763632
O  0.829988  0.547037  0.736362
O  0.670018  0.452955  0.236392
O  0.170021  0.047043  0.263605
%ENDBLOCK POSITIONS_FRAC

%BLOCK hubbard_u
   EV
   Fe        d:4.400000
%ENDBLOCK hubbard_u

kpoint_mp_grid :    3   4   5

spectral_kpoint_mp_grid :    3   4   5