# written by ASE

%BLOCK LATTICE_CART
 8.110785  0.000000  0.000000
 3.674958  7.230473  0.000000
-1.540812 -0.945252 14.902472
%ENDBLOCK LATTICE_CART

%BLOCK POSITIONS_FRAC
Fe  0.689507  0.308462  0.374693 spin 5
Fe  0.308459  0.689518  0.874692 spin 5
Fe  0.003297  0.692761  0.538582 spin 5
Fe  0.692767  0.003308  0.038585 spin 5
Fe  0.401339  0.013673  0.708604 spin 5
Fe  0.013696  0.401321  0.208603 spin 5
V  0.420462  0.418706  0.171255
V  0.418714  0.420463  0.671249
V  0.746846  0.682179  0.345337
V  0.682189  0.746838  0.845338
V  0.101928  0.067903  0.522630
V  0.067887  0.101940  0.022633
V  0.639241  0.602344  0.559340
V  0.602328  0.639249  0.059340
V  0.293032  0.269542  0.409564
V  0.269538  0.293025  0.909558
V  0.941309  0.880585  0.241618
V  0.880560  0.941314  0.741620
O  0.116243  0.850553  0.502968
O  0.850542  0.116242  0.002962
O  0.190995  0.455291  0.148352
O  0.455298  0.191000  0.648350
O  0.210145  0.252664  0.298293
O  0.252678  0.210121  0.798292
O  0.898465  0.862571  0.126805
O  0.862576  0.898462  0.626806
O  0.794220  0.079913  0.298056
O  0.079908  0.794222  0.798052
O  0.150841  0.485558  0.451368
O  0.485553  0.150846  0.951367
O  0.594069  0.452364  0.622154
O  0.452365  0.594060  0.122165
O  0.820761  0.442904  0.310110
O  0.442906  0.820786  0.810101
O  0.569344  0.556300  0.448784
O  0.556324  0.569325  0.948780
O  0.528138  0.807725  0.305792
O  0.807726  0.528129  0.805792
O  0.517122  0.827151  0.606382
O  0.827135  0.517158  0.106377
O  0.280794  0.095697  0.470499
O  0.095700  0.280794  0.970510
O  0.921394  0.672515  0.272682
O  0.672493  0.921398  0.772679
O  0.160432  0.845896  0.272569
O  0.845899  0.160426  0.772570
O  0.473551  0.434327  0.285681
O  0.434347  0.473538  0.785679
O  0.895864  0.210561  0.468453
O  0.210554  0.895871  0.968457
O  0.571355  0.207499  0.129690
O  0.207521  0.571353  0.629686
O  0.781847  0.790060  0.446740
O  0.790059  0.781847  0.946740
O  0.155465  0.094297  0.637664
O  0.094285  0.155467  0.137668
O  0.524348  0.217914  0.429533
O  0.217903  0.524338  0.929536
O  0.866628  0.551949  0.574751
O  0.551958  0.866628  0.074754
Li  0.993800  0.280186  0.740870
Li  0.280178  0.993804  0.240870
Li  0.012106  0.569285  0.030592
Li  0.569279  0.012095  0.530588
Li  0.376938  0.689646  0.346394
Li  0.689648  0.376932  0.846396
%ENDBLOCK POSITIONS_FRAC

%BLOCK hubbard_u
   EV
   V         d:3.250000
   Fe        d:5.300000
%ENDBLOCK hubbard_u

KPOINT_MP_GRID: 3 3 2

SPECTRAL_KPOINT_MP_GRID: 3 3 2
