# written by ASE

%BLOCK LATTICE_CART
 8.040866  0.000000  0.000000
 3.654869  7.162225  0.000000
-1.237805 -0.758006 14.475884
%ENDBLOCK LATTICE_CART

%BLOCK POSITIONS_FRAC
Fe  0.697437  0.298028  0.372593 spin 5
Fe  0.298027  0.697437  0.872593 spin 5
Fe  0.025889  0.673120  0.539217 spin 5
Fe  0.673119  0.025888  0.039215 spin 5
Fe  0.398257  0.007384  0.708886 spin 5
Fe  0.007385  0.398253  0.208885 spin 5
V  0.400608  0.441695  0.177244
V  0.441692  0.400608  0.677245
V  0.739232  0.666366  0.354933
V  0.666367  0.739235  0.854932
V  0.111655  0.033796  0.516923
V  0.033795  0.111655  0.016923
V  0.669746  0.586758  0.566959
V  0.586755  0.669745  0.066959
V  0.300494  0.252535  0.403022
V  0.252535  0.300493  0.903023
V  0.944582  0.870427  0.238988
V  0.870425  0.944582  0.738988
O  0.157452  0.805339  0.484091
O  0.805339  0.157451  0.984092
O  0.171899  0.477752  0.146989
O  0.477752  0.171898  0.646989
O  0.239458  0.235028  0.286044
O  0.235028  0.239456  0.786044
O  0.903673  0.884636  0.118510
O  0.884636  0.903674  0.618510
O  0.792579  0.073187  0.293755
O  0.073185  0.792580  0.793754
O  0.144196  0.463046  0.446426
O  0.463046  0.144196  0.946427
O  0.623930  0.425710  0.623881
O  0.425712  0.623928  0.123881
O  0.832786  0.419371  0.307581
O  0.419371  0.832787  0.807581
O  0.622120  0.557360  0.444030
O  0.557362  0.622120  0.944031
O  0.531356  0.806671  0.308243
O  0.806670  0.531357  0.808243
O  0.527646  0.806202  0.609221
O  0.806199  0.527648  0.109221
O  0.277476  0.070987  0.456616
O  0.070987  0.277475  0.956617
O  0.910856  0.675368  0.276903
O  0.675369  0.910853  0.776904
O  0.163268  0.840487  0.268676
O  0.840488  0.163266  0.768676
O  0.455949  0.451247  0.294854
O  0.451247  0.455949  0.794855
O  0.891951  0.185080  0.476688
O  0.185079  0.891951  0.976688
O  0.553712  0.235395  0.129312
O  0.235394  0.553713  0.629311
O  0.793323  0.775536  0.455200
O  0.775535  0.793323  0.955200
O  0.156908  0.068884  0.634773
O  0.068884  0.156908  0.134774
O  0.527862  0.218839  0.433907
O  0.218840  0.527860  0.933906
O  0.898119  0.531026  0.596251
O  0.531026  0.898117  0.096251
Li  0.970572  0.306542  0.719357
Li  0.306543  0.970572  0.219357
Li  0.032517  0.648511  0.035229
Li  0.648511  0.032515  0.535230
Li  0.342651  0.708339  0.371497
Li  0.708338  0.342650  0.871497
%ENDBLOCK POSITIONS_FRAC

%BLOCK hubbard_u
   EV
   V         d:3.250000
   Fe        d:5.300000
%ENDBLOCK hubbard_u

KPOINT_MP_GRID: 3 3 2

SPECTRAL_KPOINT_MP_GRID: 3 3 2
