# written by ASE

%BLOCK LATTICE_CART
 8.250427  0.000000  0.000000
 4.067754  7.177947  0.000000
 4.067754  2.370327  6.775284
%ENDBLOCK LATTICE_CART

%BLOCK POSITIONS_FRAC
P  0.537461  0.962538  0.250001
P  0.962539  0.250001  0.537461
P  0.250000  0.537465  0.962540
P  0.037460  0.749998  0.462543
P  0.749999  0.462541  0.037459
P  0.462542  0.037462  0.749997
O  0.501807  0.132267  0.300916
O  0.132268  0.300916  0.501807
O  0.300917  0.501804  0.132270
O  0.001807  0.800917  0.632268
O  0.800916  0.632267  0.001807
O  0.632269  0.001804  0.800917
O  0.498192  0.867733  0.699085
O  0.867731  0.699084  0.498192
O  0.699083  0.498194  0.867730
O  0.998192  0.199084  0.367733
O  0.199085  0.367737  0.998190
O  0.367733  0.998193  0.199084
O  0.443976  0.234611  0.581536
O  0.234611  0.581538  0.443977
O  0.581540  0.443979  0.234610
O  0.943979  0.081538  0.734610
O  0.081535  0.734611  0.943976
O  0.734610  0.943979  0.081538
O  0.556023  0.765389  0.418463
O  0.765389  0.418462  0.556021
O  0.418461  0.556020  0.765390
O  0.056020  0.918458  0.265391
O  0.918460  0.265390  0.056022
O  0.265391  0.056020  0.918459
Li  0.500000  0.500000  0.500000
Li  1.000000  1.000000  1.000000
Ge  0.362038  0.362036  0.362038
Ge  0.862037  0.862037  0.862040
Ge  0.637962  0.637963  0.637963
Ge  0.137963  0.137963  0.137962
%ENDBLOCK POSITIONS_FRAC

KPOINT_MP_GRID: 4 4 4

spectral_kpoint_mp_grid: 4 4 4
