# CELL file written 03:30:33 (GMT-4.0) 30th October 2025 from run ml_dos

%BLOCK lattice_cart
   ANG
       8.25042700000000        0.00000000000000        0.00000000000000    
       4.06775400000000        7.17794700000000        0.00000000000000    
       4.06775400000000        2.37032700000000        6.77528400000000    
%ENDBLOCK lattice_cart

%BLOCK positions_frac
   Li               0.500000000000000       0.500000000000000       0.500000000000000
   Li               1.000000000000000       1.000000000000000       1.000000000000000
   O                0.501807000000000       0.132267000000000       0.300916000000000
   O                0.132268000000000       0.300916000000000       0.501807000000000
   O                0.300917000000000       0.501804000000000       0.132270000000000
   O                0.001807000000000       0.800917000000000       0.632268000000000
   O                0.800916000000000       0.632267000000000       0.001807000000000
   O                0.632269000000000       0.001804000000000       0.800917000000000
   O                0.498192000000000       0.867733000000000       0.699085000000000
   O                0.867731000000000       0.699084000000000       0.498192000000000
   O                0.699083000000000       0.498194000000000       0.867730000000000
   O                0.998192000000000       0.199084000000000       0.367733000000000
   O                0.199085000000000       0.367737000000000       0.998190000000000
   O                0.367733000000000       0.998193000000000       0.199084000000000
   O                0.443976000000000       0.234611000000000       0.581536000000000
   O                0.234611000000000       0.581538000000000       0.443977000000000
   O                0.581540000000000       0.443979000000000       0.234610000000000
   O                0.943979000000000       0.081538000000000       0.734610000000000
   O                0.081535000000000       0.734611000000000       0.943976000000000
   O                0.734610000000000       0.943979000000000       0.081538000000000
   O                0.556023000000000       0.765389000000000       0.418463000000000
   O                0.765389000000000       0.418462000000000       0.556021000000000
   O                0.418461000000000       0.556020000000000       0.765390000000000
   O                0.056020000000000       0.918458000000000       0.265391000000000
   O                0.918460000000000       0.265390000000000       0.056022000000000
   O                0.265391000000000       0.056020000000000       0.918459000000000
   P                0.537461000000000       0.962538000000000       0.250001000000000
   P                0.962539000000000       0.250001000000000       0.537461000000000
   P                0.250000000000000       0.537465000000000       0.962540000000000
   P                0.037460000000000       0.749998000000000       0.462543000000000
   P                0.749999000000000       0.462541000000000       0.037459000000000
   P                0.462542000000000       0.037462000000000       0.749997000000000
   Ge               0.362038000000000       0.362036000000000       0.362038000000000
   Ge               0.862037000000000       0.862037000000000       0.862040000000000
   Ge               0.637962000000000       0.637963000000000       0.637963000000000
   Ge               0.137963000000000       0.137963000000000       0.137962000000000
%ENDBLOCK positions_frac

FIX_COM : true

%BLOCK species_pot
   Li        1|1.0|14|16|18|10U:20(qc=7)
   O         2|1.1|17|20|23|20:21(qc=8)
   P         3|1.8|4|4|5|30:31:32
   Ge        3|2.0|10|12|13|40:41:32(qc=6)
%ENDBLOCK species_pot

%BLOCK species_lcao_states
   Li        3
   O         2
   P         2
   Ge        4
%ENDBLOCK species_lcao_states

SYMMETRY_TOL :     0.001000

%BLOCK symmetry_ops
# Symm. op. 1       E
          1.000000000000000       0.000000000000000       0.000000000000000
          0.000000000000000       1.000000000000000       0.000000000000000
          0.000000000000000       0.000000000000000       1.000000000000000
          0.000000000000000       0.000000000000000       0.000000000000000
%ENDBLOCK symmetry_ops

kpoint_mp_grid :    4   4   4

phonon_kpoint_mp_grid :    4   4   4

phonon_kpoint_mp_offset :        0.125000000000000       0.125000000000000       0.125000000000000

