# written by ASE

%BLOCK LATTICE_CART
 8.822803  0.000000  0.000000
-0.000002  8.959937  0.000000
-0.193331 -0.000002 12.377645
%ENDBLOCK LATTICE_CART

%BLOCK POSITIONS_FRAC
Li  0.200520  0.722746  0.174403
Li  0.700520  0.777255  0.674402
Li  0.799480  0.277254  0.825598
Li  0.299480  0.222746  0.325597
Zr  0.743312  0.954234  0.888858
Zr  0.243312  0.545765  0.388856
Zr  0.256688  0.045765  0.111141
Zr  0.756687  0.454235  0.611143
Zr  0.753273  0.526192  0.121191
Zr  0.253273  0.973809  0.621191
Zr  0.246728  0.473808  0.878810
Zr  0.746727  0.026192  0.378808
P  0.885253  0.601246  0.854033
P  0.385253  0.898754  0.354034
P  0.114747  0.398754  0.145967
P  0.614746  0.101246  0.645967
P  0.903096  0.877220  0.146835
P  0.403096  0.622780  0.646835
P  0.096904  0.122780  0.853165
P  0.596903  0.377220  0.353165
P  0.463896  0.749741  0.012970
P  0.963895  0.750259  0.512970
P  0.536105  0.250258  0.987030
P  0.036105  0.249741  0.487029
O  0.845730  0.915213  0.033101
O  0.345729  0.584786  0.533101
O  0.154271  0.084787  0.966899
O  0.654270  0.415214  0.466898
O  0.815918  0.752068  0.819515
O  0.315918  0.747932  0.319515
O  0.184083  0.247933  0.180485
O  0.684083  0.252069  0.680485
O  0.550938  0.857769  0.941466
O  0.050937  0.642232  0.441467
O  0.449064  0.142231  0.058535
O  0.949062  0.357768  0.558534
O  0.925437  0.093776  0.845466
O  0.425435  0.406224  0.345466
O  0.074563  0.906224  0.154534
O  0.574564  0.593776  0.654534
O  0.668925  0.980406  0.726131
O  0.168925  0.519594  0.226131
O  0.331075  0.019595  0.273869
O  0.831076  0.480406  0.773869
O  0.651337  0.165285  0.918161
O  0.151337  0.334716  0.418160
O  0.348663  0.834715  0.081839
O  0.848662  0.665285  0.581840
O  0.828543  0.559571  0.964531
O  0.328541  0.940429  0.464531
O  0.171459  0.440430  0.035469
O  0.671459  0.059571  0.535470
O  0.880014  0.712288  0.169588
O  0.380013  0.787712  0.669587
O  0.119987  0.287712  0.830413
O  0.619987  0.212288  0.330413
O  0.573155  0.668638  0.087858
O  0.073154  0.831364  0.587858
O  0.426845  0.331362  0.912142
O  0.926846  0.168636  0.412141
O  0.943505  0.392213  0.146814
O  0.443504  0.107786  0.646814
O  0.056496  0.607786  0.853186
O  0.556495  0.892214  0.353186
O  0.678824  0.473777  0.272506
O  0.178823  0.026223  0.772505
O  0.321176  0.526222  0.727495
O  0.821176  0.973778  0.227495
O  0.622935  0.356131  0.060057
O  0.122936  0.143869  0.560057
O  0.377066  0.643868  0.939943
O  0.877063  0.856131  0.439942
%ENDBLOCK POSITIONS_FRAC

KPOINT_MP_GRID: 4 4 3

SPECTRAL_KPOINT_MP_GRID: 4 4 3
