# CELL file written 04:51:08 (GMT-4.0) 30th October 2025 from run ml_dos

%BLOCK lattice_cart
   ANG
       8.82280300000000        0.00000000000000        0.00000000000000    
     -0.200000000000000E-05    8.95993700000000        0.00000000000000    
     -0.193331000000000      -0.200000000000000E-05    12.3776450000000    
%ENDBLOCK lattice_cart

%BLOCK positions_frac
   Li               0.200520000000000       0.722746000000000       0.174403000000000
   Li               0.700520000000000       0.777255000000000       0.674402000000000
   Li               0.799480000000000       0.277254000000000       0.825598000000000
   Li               0.299480000000000       0.222746000000000       0.325597000000000
   O                0.845730000000000       0.915213000000000       0.033101000000000
   O                0.345729000000000       0.584786000000000       0.533101000000000
   O                0.154271000000000       0.084787000000000       0.966899000000000
   O                0.654270000000000       0.415214000000000       0.466898000000000
   O                0.815918000000000       0.752068000000000       0.819515000000000
   O                0.315918000000000       0.747932000000000       0.319515000000000
   O                0.184083000000000       0.247933000000000       0.180485000000000
   O                0.684083000000000       0.252069000000000       0.680485000000000
   O                0.550938000000000       0.857769000000000       0.941466000000000
   O                0.050937000000000       0.642232000000000       0.441467000000000
   O                0.449064000000000       0.142231000000000       0.058535000000000
   O                0.949062000000000       0.357768000000000       0.558534000000000
   O                0.925437000000000       0.093776000000000       0.845466000000000
   O                0.425435000000000       0.406224000000000       0.345466000000000
   O                0.074563000000000       0.906224000000000       0.154534000000000
   O                0.574564000000000       0.593776000000000       0.654534000000000
   O                0.668925000000000       0.980406000000000       0.726131000000000
   O                0.168925000000000       0.519594000000000       0.226131000000000
   O                0.331075000000000       0.019595000000000       0.273869000000000
   O                0.831076000000000       0.480406000000000       0.773869000000000
   O                0.651337000000000       0.165285000000000       0.918161000000000
   O                0.151337000000000       0.334716000000000       0.418160000000000
   O                0.348663000000000       0.834715000000000       0.081839000000000
   O                0.848662000000000       0.665285000000000       0.581840000000000
   O                0.828543000000000       0.559571000000000       0.964531000000000
   O                0.328541000000000       0.940429000000000       0.464531000000000
   O                0.171459000000000       0.440430000000000       0.035469000000000
   O                0.671459000000000       0.059571000000000       0.535470000000000
   O                0.880014000000000       0.712288000000000       0.169588000000000
   O                0.380013000000000       0.787712000000000       0.669587000000000
   O                0.119987000000000       0.287712000000000       0.830413000000000
   O                0.619987000000000       0.212288000000000       0.330413000000000
   O                0.573155000000000       0.668638000000000       0.087858000000000
   O                0.073154000000000       0.831364000000000       0.587858000000000
   O                0.426845000000000       0.331362000000000       0.912142000000000
   O                0.926846000000000       0.168636000000000       0.412141000000000
   O                0.943505000000000       0.392213000000000       0.146814000000000
   O                0.443504000000000       0.107786000000000       0.646814000000000
   O                0.056496000000000       0.607786000000000       0.853186000000000
   O                0.556495000000000       0.892214000000000       0.353186000000000
   O                0.678824000000000       0.473777000000000       0.272506000000000
   O                0.178823000000000       0.026223000000000       0.772505000000000
   O                0.321176000000000       0.526222000000000       0.727495000000000
   O                0.821176000000000       0.973778000000000       0.227495000000000
   O                0.622935000000000       0.356131000000000       0.060057000000000
   O                0.122936000000000       0.143869000000000       0.560057000000000
   O                0.377066000000000       0.643868000000000       0.939943000000000
   O                0.877063000000000       0.856131000000000       0.439942000000000
   P                0.885253000000000       0.601246000000000       0.854033000000000
   P                0.385253000000000       0.898754000000000       0.354034000000000
   P                0.114747000000000       0.398754000000000       0.145967000000000
   P                0.614746000000000       0.101246000000000       0.645967000000000
   P                0.903096000000000       0.877220000000000       0.146835000000000
   P                0.403096000000000       0.622780000000000       0.646835000000000
   P                0.096904000000000       0.122780000000000       0.853165000000000
   P                0.596903000000000       0.377220000000000       0.353165000000000
   P                0.463896000000000       0.749741000000000       0.012970000000000
   P                0.963895000000000       0.750259000000000       0.512970000000000
   P                0.536105000000000       0.250258000000000       0.987030000000000
   P                0.036105000000000       0.249741000000000       0.487029000000000
   Zr               0.743312000000000       0.954234000000000       0.888858000000000
   Zr               0.243312000000000       0.545765000000000       0.388856000000000
   Zr               0.256688000000000       0.045765000000000       0.111141000000000
   Zr               0.756687000000000       0.454235000000000       0.611143000000000
   Zr               0.753273000000000       0.526192000000000       0.121191000000000
   Zr               0.253273000000000       0.973809000000000       0.621191000000000
   Zr               0.246728000000000       0.473808000000000       0.878810000000000
   Zr               0.746727000000000       0.026192000000000       0.378808000000000
%ENDBLOCK positions_frac

FIX_COM : true

%BLOCK species_pot
   Li        1|1.0|14|16|18|10U:20(qc=7)
   O         2|1.1|17|20|23|20:21(qc=8)
   P         3|1.8|4|4|5|30:31:32
   Zr        3|2.1|7|8|9|40U:50:41:42
%ENDBLOCK species_pot

%BLOCK species_lcao_states
   Li        3
   O         2
   P         2
   Zr        5
%ENDBLOCK species_lcao_states

SYMMETRY_TOL :     0.001000

%BLOCK symmetry_ops
# Symm. op. 1       E
          1.000000000000000       0.000000000000000       0.000000000000000
          0.000000000000000       1.000000000000000       0.000000000000000
          0.000000000000000       0.000000000000000       1.000000000000000
          0.000000000000000       0.000000000000000       0.000000000000000
%ENDBLOCK symmetry_ops

kpoint_mp_grid :    4   4   3

phonon_kpoint_mp_grid :    4   4   3

phonon_kpoint_mp_offset :        0.125000000000000       0.125000000000000       0.000000000000000

