# CELL file written 10:15:38 (GMT-8.0) 3rd November 2025 from run ml_dos

%BLOCK lattice_cart
   ANG
       6.78284800000000        0.00000000000000        0.00000000000000    
     -0.180800000000000E-02    7.92786300000000        0.00000000000000    
     -0.549166000000000       0.771900000000000E-02    13.9900940000000    
%ENDBLOCK lattice_cart

%BLOCK positions_frac
   Li               0.170956000000000       0.554280000000000       0.894666000000000
   Li               0.829155000000000       0.054665000000000       0.605078000000000
   Li               0.829025000000000       0.445434000000000       0.105085000000000
   Li               0.170736000000000       0.945614000000000       0.394834000000000
   Al               0.686104000000000       0.206363000000000       0.385249000000000
   Al               0.313411000000000       0.706459000000000       0.114726000000000
   Al               0.313832000000000       0.793800000000000       0.614744000000000
   Al               0.686628000000000       0.293488000000000       0.885360000000000
   Cl               0.756181000000000       0.322691000000000       0.521424000000000
   Cl               0.244006000000000       0.821826000000000       0.978150000000000
   Cl               0.244749000000000       0.678122000000000       0.478281000000000
   Cl               0.757073000000000       0.176954000000000       0.021488000000000
   Cl               0.805894000000000       0.951394000000000       0.404037000000000
   Cl               0.193418000000000       0.451526000000000       0.096053000000000
   Cl               0.193844000000000       0.048724000000000       0.596044000000000
   Cl               0.806040000000000       0.548569000000000       0.904339000000000
   Cl               0.825352000000000       0.329545000000000       0.268646000000000
   Cl               0.174454000000000       0.830361000000000       0.231091000000000
   Cl               0.174327000000000       0.669291000000000       0.730835000000000
   Cl               0.825278000000000       0.170850000000000       0.768489000000000
   Cl               0.370901000000000       0.189377000000000       0.362687000000000
   Cl               0.628478000000000       0.689187000000000       0.137718000000000
   Cl               0.628830000000000       0.811095000000000       0.637925000000000
   Cl               0.371327000000000       0.310384000000000       0.863050000000000
%ENDBLOCK positions_frac

FIX_COM : true

%BLOCK species_pot
   Li        1|1.0|14|16|18|10U:20(qc=7)
   Al        3|2.2|2.2|1.4|4|5|5|30:31:32U2U2
   Cl        3|1.8|5|6|7|30:31:32
%ENDBLOCK species_pot

%BLOCK species_lcao_states
   Li        3
   Al        2
   Cl        2
%ENDBLOCK species_lcao_states

SYMMETRY_TOL :     0.001000

%BLOCK symmetry_ops
# Symm. op. 1       E
          1.000000000000000       0.000000000000000       0.000000000000000
          0.000000000000000       1.000000000000000       0.000000000000000
          0.000000000000000       0.000000000000000       1.000000000000000
          0.000000000000000       0.000000000000000       0.000000000000000
%ENDBLOCK symmetry_ops

kpoint_mp_grid :    8   8   4

phonon_kpoint_mp_grid :    8   8   4

phonon_kpoint_mp_offset :        0.062500000000000       0.062500000000000       0.125000000000000

