# written by ASE

%BLOCK LATTICE_CART
 6.782848  0.000000  0.000000
-0.001808  7.927863  0.000000
-0.549166  0.007719 13.990094
%ENDBLOCK LATTICE_CART

%BLOCK POSITIONS_FRAC
Li  0.170956  0.554280  0.894666
Li  0.829155  0.054665  0.605078
Li  0.829025  0.445434  0.105085
Li  0.170736  0.945614  0.394834
Al  0.686104  0.206363  0.385249
Al  0.313411  0.706459  0.114726
Al  0.313832  0.793800  0.614744
Al  0.686628  0.293488  0.885360
Cl  0.756181  0.322691  0.521424
Cl  0.244006  0.821826  0.978150
Cl  0.244749  0.678122  0.478281
Cl  0.757073  0.176954  0.021488
Cl  0.805894  0.951394  0.404037
Cl  0.193418  0.451526  0.096053
Cl  0.193844  0.048724  0.596044
Cl  0.806040  0.548569  0.904339
Cl  0.825352  0.329545  0.268646
Cl  0.174454  0.830361  0.231091
Cl  0.174327  0.669291  0.730835
Cl  0.825278  0.170850  0.768489
Cl  0.370901  0.189377  0.362687
Cl  0.628478  0.689187  0.137718
Cl  0.628830  0.811095  0.637925
Cl  0.371327  0.310384  0.863050
%ENDBLOCK POSITIONS_FRAC

kpoint_mp_grid :    8   8   4

spectral_kpoint_mp_grid :  8  8  4
