# CELL file written 04:44:45 (GMT-5.0) 26th December 2025 from run LiFeV2O7

%BLOCK lattice_cart
   ANG
       6.86075804832075       -4.17170749309594       0.670107522214566E-02
       6.86075628288650        4.17170459250367       0.669943010955200E-02
      -1.65728048148267      -0.254190040441793E-05    14.4148765271460    
%ENDBLOCK lattice_cart

%BLOCK positions_frac
   Li               0.970501440909272       0.298937255651659       0.720222105460406
   Li               0.298937286259961       0.970501426545343       0.220222126262681
   Li               0.027934012738762       0.652400109903339       0.033722184621919
   Li               0.652400101259054       0.027933982993958       0.533722175727305
   Li               0.342711683424880       0.706882675890597       0.372850139176273
   Li               0.706882620995281       0.342711633119704       0.872850163322485
   O                0.157674706703200       0.804060749730158       0.485787855264762
   O                0.804060685002620       0.157674775301155       0.985787880543854
   O                0.173037112803773       0.477818291231025       0.145740268021585
   O                0.477818392117263       0.173037442300889       0.645740384987461
   O                0.242811569309602       0.229368331559273       0.287168534041477
   O                0.229368086798179       0.242811705808709       0.787168462618545
   O                0.906156797778640       0.880568441808444       0.121565440052045
   O                0.880568287903600       0.906156885949100       0.621565335390111
   O                0.783049763670662       0.070428388619304       0.291206569086346
   O                0.070428305749813       0.783049575440849       0.791206537740810
   O                0.146509597993314       0.450924215147303       0.448276768377206
   O                0.450924350666909       0.146509511778186       0.948276885408803
   O                0.632674092993965       0.418492391488411       0.623806159048849
   O                0.418492537981659       0.632674302159034       0.123805983562885
   O                0.831711066107345       0.420589103070472       0.308300167851878
   O                0.420588845299431       0.831711356762557       0.808299968118854
   O                0.621295021879195       0.561365523959796       0.445144974675653
   O                0.561365745375475       0.621294791995460       0.945145346633558
   O                0.536588357570811       0.806916444654658       0.307245082962882
   O                0.806916722691704       0.536587907535804       0.807245027858755
   O                0.524673578799445       0.801008303407039       0.609324064138558
   O                0.801008121409566       0.524673675234085       0.109324051067341
   O                0.286135607908010       0.060285335656223       0.455762880674033
   O                0.060285114573622       0.286135764134508       0.955762824442566
   O                0.916634242368363       0.673027708251553       0.278452748994447
   O                0.673027528360811       0.916634452704237       0.778452603492298
   O                0.158801635139341       0.847562182611296       0.272993595751126
   O                0.847562099185241       0.158801862116962       0.772993695344732
   O                0.452048326141949       0.457566611463992       0.292373826080077
   O                0.457566848164279       0.452047851967384       0.792373589167847
   O                0.899527857215188       0.181906818622437       0.474088638204098
   O                0.181906668812856       0.899528182164250       0.974088762120337
   O                0.555556824831012       0.244127043963999       0.129866581513929
   O                0.244127402892363       0.555556636440362       0.629866603522508
   O                0.791365761979945       0.782542972186847       0.453776454005449
   O                0.782543097640986       0.791366010714441       0.953776699327746
   O                0.151393391935841       0.078274587912870       0.631750281859103
   O                0.078274621356455       0.151393452676171       0.131750359760699
   O                0.527743717709369       0.217112263690955       0.432669504353078
   O                0.217112104095276       0.527743640681803       0.932669538941428
   O                0.895006617305452       0.536249728630609       0.595870062902070
   O                0.536249829271552       0.895006399061260       0.095870046506575
   V                0.397987176843905       0.447166565814903       0.175347579824364
   V                0.447166894195093       0.397986727352709       0.675347728725837
   V                0.740948978266346       0.668772018944741       0.354937917807033
   V                0.668772578737633       0.740948136374058       0.854937816823079
   V                0.116605885589606       0.031836095174199       0.514518858939586
   V                0.031836201370321       0.116605753181055       0.014518898893068
   V                0.669652532105323       0.583745516623213       0.568488464107190
   V                0.583745414705685       0.669652845565245       0.068488360114188
   V                0.303653312755961       0.244682718347899       0.403393910774430
   V                0.244682597471407       0.303653464376553       0.903393764745073
   V                0.944367430756688       0.870931119424320       0.241305398593185
   V                0.870930848766775       0.944368001785117       0.741305455971592
   Fe               0.696087594093820       0.300152375717690       0.371127890846214 SPIN= 5.000
   Fe               0.300152328152924       0.696087700665098       0.871127937441581 SPIN= 5.000
   Fe               0.025610877376027       0.673469241437815       0.540433047650282 SPIN= 5.000
   Fe               0.673469221149467       0.025610944024789       0.040432945093561 SPIN= 5.000
   Fe               0.396603576401566       0.008568566767880       0.709282006326966 SPIN= 5.000
   Fe               0.008568510974326       0.396603652518412       0.209282020793398 SPIN= 5.000
%ENDBLOCK positions_frac

%BLOCK hubbard_u
   EV
   V         d:3.250000
   Fe        d:5.300000
%ENDBLOCK hubbard_u

kpoint_mp_grid :    3   3   2

SPECTRAL_KPOINT_MP_GRID: 3 3 2