# CELL file written 13:20:29 (GMT-5.0) 20th February 2026 from run ml_dos

%BLOCK lattice_cart
   ANG
       10.4640860000000        0.00000000000000        0.00000000000000    
       0.00000000000000        6.06611900000000        0.00000000000000    
       0.00000000000000        0.00000000000000        4.76613500000000    
%ENDBLOCK lattice_cart

%BLOCK positions_frac
   Li               0.500000000000000       1.000000000000000       0.500000000000000
   Li               0.000000000000000       0.500000000000000       0.000000000000000
   Li               0.500000000000000       0.500000000000000       0.500000000000000
   Li               0.000000000000000       0.000000000000000       0.000000000000000
   O                0.597471000000000       0.250000000000000       0.761809000000000
   O                0.097471000000000       0.250000000000000       0.738191000000000
   O                0.402529000000000       0.750000000000000       0.238191000000000
   O                0.902529000000000       0.750000000000000       0.261809000000000
   O                0.956075000000000       0.250000000000000       0.293629000000000
   O                0.456075000000000       0.250000000000000       0.206371000000000
   O                0.043925000000000       0.750000000000000       0.706371000000000
   O                0.543925000000000       0.750000000000000       0.793629000000000
   O                0.664006000000000       0.046263000000000       0.218641000000000
   O                0.164006000000000       0.453737000000000       0.281359000000000
   O                0.335994000000000       0.546263000000000       0.781359000000000
   O                0.835994000000000       0.953737000000000       0.718641000000000
   O                0.335994000000000       0.953737000000000       0.781359000000000
   O                0.835994000000000       0.546263000000000       0.718641000000000
   O                0.664006000000000       0.453737000000000       0.218641000000000
   O                0.164006000000000       0.046263000000000       0.281359000000000
   P                0.593852000000000       0.250000000000000       0.084178000000000
   P                0.093852000000000       0.250000000000000       0.415822000000000
   P                0.406148000000000       0.750000000000000       0.915822000000000
   P                0.906148000000000       0.750000000000000       0.584178000000000
   Fe               0.780877000000000       0.250000000000000       0.525987000000000 SPIN= 4.500
   Fe               0.280877000000000       0.250000000000000       0.974013000000000 SPIN=-4.500
   Fe               0.219123000000000       0.750000000000000       0.474013000000000 SPIN= 4.500
   Fe               0.719123000000000       0.750000000000000       0.025987000000000 SPIN=-4.500
%ENDBLOCK positions_frac

FIX_COM : true

%BLOCK hubbard_u
   EV
   Fe        d:4.400000
%ENDBLOCK hubbard_u

QUANTISATION_AXIS :     0.000000    0.000000    1.000000

%BLOCK species_pot
   Li        1|1.0|14|16|18|10U:20(qc=7)
   O         2|1.1|17|20|23|20:21(qc=8)
   P         3|1.8|4|4|5|30:31:32
   Fe        3|2.4|2.4|1.0|8|9|10|40:41:32U2U2(qc=5.5)
%ENDBLOCK species_pot

%BLOCK species_lcao_states
   Li        3
   O         2
   P         2
   Fe        3
%ENDBLOCK species_lcao_states

SYMMETRY_TOL :     0.001000

%BLOCK symmetry_ops
# Symm. op. 1       E
          1.000000000000000       0.000000000000000       0.000000000000000
          0.000000000000000       1.000000000000000       0.000000000000000
          0.000000000000000       0.000000000000000       1.000000000000000
          0.000000000000000       0.000000000000000       0.000000000000000
%ENDBLOCK symmetry_ops

kpoint_mp_grid :    2   4   5

phonon_kpoint_mp_grid :    2   4   5

phonon_kpoint_mp_offset :        0.250000000000000       0.125000000000000       0.000000000000000

