# written by ASE

%BLOCK LATTICE_CART
 5.204390  0.000000  0.000000
-0.000000  5.204390  0.000000
-0.000000 -0.000000  6.182915
%ENDBLOCK LATTICE_CART

%BLOCK POSITIONS_FRAC
Li  0.313208  0.686792  0.750000
Li  0.686792  0.313208  0.250000
Li  0.186792  0.186792  0.500000
Li  0.813208  0.813208  0.000000
Al  0.675151  0.324849  0.750000
Al  0.324849  0.675151  0.250000
Al  0.824849  0.824848  0.500000
Al  0.175152  0.175151  0.000000
O  0.837919  0.206462  0.978271
O  0.162081  0.793538  0.478271
O  0.706462  0.662081  0.728271
O  0.293538  0.337919  0.228272
O  0.793538  0.162081  0.521729
O  0.206462  0.837919  0.021729
O  0.662081  0.706462  0.271729
O  0.337918  0.293538  0.771728
%ENDBLOCK POSITIONS_FRAC

KPOINT_MP_GRID: 10 10 8

SPECTRAL_KPOINT_MP_GRID: 10 10 8
