# CELL file written 10:52:35 (GMT-8.0) 3rd November 2025 from run ml_dos

%BLOCK lattice_cart
   ANG
       5.20439000000000        0.00000000000000        0.00000000000000    
       0.00000000000000        5.20439000000000        0.00000000000000    
       0.00000000000000        0.00000000000000        6.18291500000000    
%ENDBLOCK lattice_cart

%BLOCK positions_frac
   Li               0.313208000000000       0.686792000000000       0.750000000000000
   Li               0.686792000000000       0.313208000000000       0.250000000000000
   Li               0.186792000000000       0.186792000000000       0.500000000000000
   Li               0.813208000000000       0.813208000000000       0.000000000000000
   O                0.837919000000000       0.206462000000000       0.978271000000000
   O                0.162081000000000       0.793538000000000       0.478271000000000
   O                0.706462000000000       0.662081000000000       0.728271000000000
   O                0.293538000000000       0.337919000000000       0.228272000000000
   O                0.793538000000000       0.162081000000000       0.521729000000000
   O                0.206462000000000       0.837919000000000       0.021729000000000
   O                0.662081000000000       0.706462000000000       0.271729000000000
   O                0.337918000000000       0.293538000000000       0.771728000000000
   Al               0.675151000000000       0.324849000000000       0.750000000000000
   Al               0.324849000000000       0.675151000000000       0.250000000000000
   Al               0.824849000000000       0.824848000000000       0.500000000000000
   Al               0.175152000000000       0.175151000000000       0.000000000000000
%ENDBLOCK positions_frac

FIX_COM : true

%BLOCK species_pot
   Li        1|1.0|14|16|18|10U:20(qc=7)
   O         2|1.1|17|20|23|20:21(qc=8)
   Al        3|2.2|2.2|1.4|4|5|5|30:31:32U2U2
%ENDBLOCK species_pot

%BLOCK species_lcao_states
   Li        3
   O         2
   Al        2
%ENDBLOCK species_lcao_states

SYMMETRY_TOL :     0.001000

%BLOCK symmetry_ops
# Symm. op. 1       E
          1.000000000000000       0.000000000000000       0.000000000000000
          0.000000000000000       1.000000000000000       0.000000000000000
          0.000000000000000       0.000000000000000       1.000000000000000
          0.000000000000000       0.000000000000000       0.000000000000000
%ENDBLOCK symmetry_ops

kpoint_mp_grid :   10  10   8

phonon_kpoint_mp_grid :   10  10   8

phonon_kpoint_mp_offset :        0.050000000000000       0.050000000000000       0.062500000000000

