# written by ASE

%BLOCK LATTICE_CART
 5.222067  0.000000  0.000000
-0.000004  5.222008  0.000000
 0.000024  0.000058  6.326891
%ENDBLOCK LATTICE_CART

%BLOCK POSITIONS_FRAC
Li  0.313442  0.685805  0.750134
Li  0.685520  0.313606  0.249966
Li  0.186045  0.185971  0.499965
Li  0.814456  0.813871  0.000312
Al  0.676436  0.323339  0.750038
Al  0.323663  0.676914  0.249965
Al  0.823249  0.823187  0.500159
Al  0.176840  0.176873  0.999889
O  0.837735  0.208700  0.977645
O  0.162533  0.791348  0.477632
O  0.708846  0.662504  0.727854
O  0.291053  0.337777  0.227391
O  0.790706  0.162238  0.522411
O  0.209376  0.837831  0.022313
O  0.662811  0.708767  0.272208
O  0.337288  0.291270  0.772117
%ENDBLOCK POSITIONS_FRAC

KPOINT_MP_GRID: 10 10 8

SPECTRAL_KPOINT_MP_GRID: 10 10 8
