# CELL file written 10:41:41 (GMT-8.0) 3rd November 2025 from run ml_dos

%BLOCK lattice_cart
   ANG
       5.22206700000000        0.00000000000000        0.00000000000000    
     -0.400000000000000E-05    5.22200800000000        0.00000000000000    
      0.240000000000000E-04   0.580000000000000E-04    6.32689100000000    
%ENDBLOCK lattice_cart

%BLOCK positions_frac
   Li               0.313442000000000       0.685805000000000       0.750134000000000
   Li               0.685520000000000       0.313606000000000       0.249966000000000
   Li               0.186045000000000       0.185971000000000       0.499965000000000
   Li               0.814456000000000       0.813871000000000       0.000312000000000
   O                0.837735000000000       0.208700000000000       0.977645000000000
   O                0.162533000000000       0.791348000000000       0.477632000000000
   O                0.708846000000000       0.662504000000000       0.727854000000000
   O                0.291053000000000       0.337777000000000       0.227391000000000
   O                0.790706000000000       0.162238000000000       0.522411000000000
   O                0.209376000000000       0.837831000000000       0.022313000000000
   O                0.662811000000000       0.708767000000000       0.272208000000000
   O                0.337288000000000       0.291270000000000       0.772117000000000
   Al               0.676436000000000       0.323339000000000       0.750038000000000
   Al               0.323663000000000       0.676914000000000       0.249965000000000
   Al               0.823249000000000       0.823187000000000       0.500159000000000
   Al               0.176840000000000       0.176873000000000       0.999889000000000
%ENDBLOCK positions_frac

FIX_COM : true

%BLOCK species_pot
   Li        1|1.0|14|16|18|10U:20(qc=7)
   O         2|1.1|17|20|23|20:21(qc=8)
   Al        3|2.2|2.2|1.4|4|5|5|30:31:32U2U2
%ENDBLOCK species_pot

%BLOCK species_lcao_states
   Li        3
   O         2
   Al        2
%ENDBLOCK species_lcao_states

SYMMETRY_TOL :     0.001000

%BLOCK symmetry_ops
# Symm. op. 1       E
          1.000000000000000       0.000000000000000       0.000000000000000
          0.000000000000000       1.000000000000000       0.000000000000000
          0.000000000000000       0.000000000000000       1.000000000000000
          0.000000000000000       0.000000000000000       0.000000000000000
%ENDBLOCK symmetry_ops

kpoint_mp_grid :   10  10   8

phonon_kpoint_mp_grid :   10  10   8

phonon_kpoint_mp_offset :        0.050000000000000       0.050000000000000       0.062500000000000

