# CELL file written 04:27:52 (GMT-4.0) 30th October 2025 from run ml_dos

%BLOCK lattice_cart
   ANG
       8.96730000000000        0.00000000000000        0.00000000000000    
      0.160000000000000E-04    9.10503200000000        0.00000000000000    
     -0.176039000000000      -0.115000000000000E-03    12.5833830000000    
%ENDBLOCK lattice_cart

%BLOCK positions_frac
   Li               0.212359000000000       0.725033000000000       0.178277000000000
   Li               0.712391000000000       0.774133000000000       0.678329000000000
   Li               0.787651000000000       0.274431000000000       0.821420000000000
   Li               0.287851000000000       0.225321000000000       0.321388000000000
   O                0.849369000000000       0.920676000000000       0.032067000000000
   O                0.349755000000000       0.578208000000000       0.532523000000000
   O                0.150141000000000       0.078897000000000       0.967641000000000
   O                0.651074000000000       0.421786000000000       0.467401000000000
   O                0.820677000000000       0.751751000000000       0.821620000000000
   O                0.320583000000000       0.748028000000000       0.322067000000000
   O                0.179592000000000       0.248224000000000       0.178001000000000
   O                0.679500000000000       0.251743000000000       0.678030000000000
   O                0.554077000000000       0.858939000000000       0.942857000000000
   O                0.054365000000000       0.641063000000000       0.443098000000000
   O                0.446156000000000       0.140654000000000       0.057391000000000
   O                0.946963000000000       0.359928000000000       0.557696000000000
   O                0.925477000000000       0.098404000000000       0.845436000000000
   O                0.425694000000000       0.401378000000000       0.345950000000000
   O                0.074252000000000       0.900985000000000       0.154167000000000
   O                0.574589000000000       0.598191000000000       0.654777000000000
   O                0.674511000000000       0.980508000000000       0.726258000000000
   O                0.174247000000000       0.519294000000000       0.226616000000000
   O                0.325691000000000       0.019118000000000       0.273048000000000
   O                0.825846000000000       0.480748000000000       0.773421000000000
   O                0.649425000000000       0.163330000000000       0.919533000000000
   O                0.149816000000000       0.336766000000000       0.419973000000000
   O                0.350422000000000       0.836377000000000       0.080218000000000
   O                0.849969000000000       0.663756000000000       0.580126000000000
   O                0.825987000000000       0.556448000000000       0.964693000000000
   O                0.326386000000000       0.944333000000000       0.464530000000000
   O                0.174168000000000       0.444541000000000       0.035516000000000
   O                0.673984000000000       0.056399000000000       0.535197000000000
   O                0.869744000000000       0.715337000000000       0.166989000000000
   O                0.370778000000000       0.784214000000000       0.666866000000000
   O                0.129129000000000       0.284453000000000       0.832941000000000
   O                0.630066000000000       0.216038000000000       0.332717000000000
   O                0.567127000000000       0.662796000000000       0.084907000000000
   O                0.067174000000000       0.837140000000000       0.585279000000000
   O                0.432171000000000       0.336966000000000       0.915316000000000
   O                0.932009000000000       0.163794000000000       0.415409000000000
   O                0.944859000000000       0.399276000000000       0.146802000000000
   O                0.444669000000000       0.100998000000000       0.646985000000000
   O                0.055218000000000       0.601289000000000       0.852849000000000
   O                0.555347000000000       0.898819000000000       0.352731000000000
   O                0.675293000000000       0.479365000000000       0.273358000000000
   O                0.175730000000000       0.021298000000000       0.773557000000000
   O                0.323717000000000       0.521454000000000       0.726698000000000
   O                0.824429000000000       0.978812000000000       0.226198000000000
   O                0.626846000000000       0.349702000000000       0.063663000000000
   O                0.126384000000000       0.150132000000000       0.564447000000000
   O                0.373001000000000       0.649933000000000       0.935947000000000
   O                0.874324000000000       0.850590000000000       0.435746000000000
   P                0.884398000000000       0.598003000000000       0.855097000000000
   P                0.384349000000000       0.902008000000000       0.354981000000000
   P                0.115756000000000       0.402213000000000       0.145046000000000
   P                0.615633000000000       0.097889000000000       0.644865000000000
   P                0.902401000000000       0.878473000000000       0.146157000000000
   P                0.402655000000000       0.620776000000000       0.646543000000000
   P                0.097212000000000       0.121068000000000       0.853738000000000
   P                0.597632000000000       0.379166000000000       0.353691000000000
   P                0.463410000000000       0.749814000000000       0.010392000000000
   P                0.963537000000000       0.750072000000000       0.510740000000000
   P                0.536383000000000       0.249602000000000       0.989344000000000
   P                0.036544000000000       0.250276000000000       0.489616000000000
   Zr               0.745461000000000       0.953898000000000       0.889886000000000
   Zr               0.245624000000000       0.545495000000000       0.390207000000000
   Zr               0.254131000000000       0.045474000000000       0.110155000000000
   Zr               0.754562000000000       0.454330000000000       0.610439000000000
   Zr               0.750673000000000       0.525525000000000       0.121397000000000
   Zr               0.250566000000000       0.974046000000000       0.621624000000000
   Zr               0.248854000000000       0.473978000000000       0.878934000000000
   Zr               0.749237000000000       0.026098000000000       0.378475000000000
%ENDBLOCK positions_frac

FIX_COM : true

%BLOCK species_pot
   Li        1|1.0|14|16|18|10U:20(qc=7)
   O         2|1.1|17|20|23|20:21(qc=8)
   P         3|1.8|4|4|5|30:31:32
   Zr        3|2.1|7|8|9|40U:50:41:42
%ENDBLOCK species_pot

%BLOCK species_lcao_states
   Li        3
   O         2
   P         2
   Zr        5
%ENDBLOCK species_lcao_states

SYMMETRY_TOL :     0.001000

%BLOCK symmetry_ops
# Symm. op. 1       E
          1.000000000000000       0.000000000000000       0.000000000000000
          0.000000000000000       1.000000000000000       0.000000000000000
          0.000000000000000       0.000000000000000       1.000000000000000
          0.000000000000000       0.000000000000000       0.000000000000000
%ENDBLOCK symmetry_ops

kpoint_mp_grid :    4   4   3

phonon_kpoint_mp_grid :    4   4   3

phonon_kpoint_mp_offset :        0.125000000000000       0.125000000000000       0.000000000000000

