# written by ASE

%BLOCK LATTICE_CART
 8.967300  0.000000  0.000000
 0.000016  9.105032  0.000000
-0.176039 -0.000115 12.583383
%ENDBLOCK LATTICE_CART

%BLOCK POSITIONS_FRAC
Li  0.212359  0.725033  0.178277
Li  0.712391  0.774133  0.678329
Li  0.787651  0.274431  0.821420
Li  0.287851  0.225321  0.321388
Zr  0.745461  0.953898  0.889886
Zr  0.245624  0.545495  0.390207
Zr  0.254131  0.045474  0.110155
Zr  0.754562  0.454330  0.610439
Zr  0.750673  0.525525  0.121397
Zr  0.250566  0.974046  0.621624
Zr  0.248854  0.473978  0.878934
Zr  0.749237  0.026098  0.378475
P  0.884398  0.598003  0.855097
P  0.384349  0.902008  0.354981
P  0.115756  0.402213  0.145046
P  0.615633  0.097889  0.644865
P  0.902401  0.878473  0.146157
P  0.402655  0.620776  0.646543
P  0.097212  0.121068  0.853738
P  0.597632  0.379166  0.353691
P  0.463410  0.749814  0.010392
P  0.963537  0.750072  0.510740
P  0.536383  0.249602  0.989344
P  0.036544  0.250276  0.489616
O  0.849369  0.920676  0.032067
O  0.349755  0.578208  0.532523
O  0.150141  0.078897  0.967641
O  0.651074  0.421786  0.467401
O  0.820677  0.751751  0.821620
O  0.320583  0.748028  0.322067
O  0.179592  0.248224  0.178001
O  0.679500  0.251743  0.678030
O  0.554077  0.858939  0.942857
O  0.054365  0.641063  0.443098
O  0.446156  0.140654  0.057391
O  0.946963  0.359928  0.557696
O  0.925477  0.098404  0.845436
O  0.425694  0.401378  0.345950
O  0.074252  0.900985  0.154167
O  0.574589  0.598191  0.654777
O  0.674511  0.980508  0.726258
O  0.174247  0.519294  0.226616
O  0.325691  0.019118  0.273048
O  0.825846  0.480748  0.773421
O  0.649425  0.163330  0.919533
O  0.149816  0.336766  0.419973
O  0.350422  0.836377  0.080218
O  0.849969  0.663756  0.580126
O  0.825987  0.556448  0.964693
O  0.326386  0.944333  0.464530
O  0.174168  0.444541  0.035516
O  0.673984  0.056399  0.535197
O  0.869744  0.715337  0.166989
O  0.370778  0.784214  0.666866
O  0.129129  0.284453  0.832941
O  0.630066  0.216038  0.332717
O  0.567127  0.662796  0.084907
O  0.067174  0.837140  0.585279
O  0.432171  0.336966  0.915316
O  0.932009  0.163794  0.415409
O  0.944859  0.399276  0.146802
O  0.444669  0.100998  0.646985
O  0.055218  0.601289  0.852849
O  0.555347  0.898819  0.352731
O  0.675293  0.479365  0.273358
O  0.175730  0.021298  0.773557
O  0.323717  0.521454  0.726698
O  0.824429  0.978812  0.226198
O  0.626846  0.349702  0.063663
O  0.126384  0.150132  0.564447
O  0.373001  0.649933  0.935947
O  0.874324  0.850590  0.435746
%ENDBLOCK POSITIONS_FRAC

KPOINT_MP_GRID: 4 4 3

SPECTRAL_KPOINT_MP_GRID: 4 4 3
