# CELL file written 10:00:57 (GMT-8.0) 3rd November 2025 from run ml_dos

%BLOCK lattice_cart
   ANG
       7.01133200000000        0.00000000000000        0.00000000000000    
     -0.600000000000000E-05    6.47403900000000        0.00000000000000    
     -0.676005000000000      -0.130000000000000E-04    12.8843650000000    
%ENDBLOCK lattice_cart

%BLOCK positions_frac
   Li               0.131969000000000       0.524266000000000       0.854000000000000
   Li               0.868038000000000       0.024263000000000       0.646000000000000
   Li               0.868031000000000       0.475732000000000       0.145999000000000
   Li               0.131963000000000       0.975739000000000       0.354000000000000
   Al               0.694645000000000       0.167234000000000       0.401173000000000
   Al               0.305368000000000       0.667232000000000       0.098831000000000
   Al               0.305358000000000       0.832768000000000       0.598828000000000
   Al               0.694631000000000       0.332768000000000       0.901168000000000
   Cl               0.697650000000000       0.304359000000000       0.552663000000000
   Cl               0.302344000000000       0.804346000000000       0.947335000000000
   Cl               0.302351000000000       0.695638000000000       0.447337000000000
   Cl               0.697656000000000       0.195657000000000       0.052666000000000
   Cl               0.813481000000000       0.862955000000000       0.425415000000000
   Cl               0.186507000000000       0.362963000000000       0.074585000000000
   Cl               0.186517000000000       0.137045000000000       0.574586000000000
   Cl               0.813490000000000       0.637036000000000       0.925415000000000
   Cl               0.919895000000000       0.305092000000000       0.314318000000000
   Cl               0.080100000000000       0.805083000000000       0.185678000000000
   Cl               0.080106000000000       0.694908000000000       0.685682000000000
   Cl               0.919900000000000       0.194917000000000       0.814322000000000
   Cl               0.422904000000000       0.169780000000000       0.320680000000000
   Cl               0.577104000000000       0.669771000000000       0.179322000000000
   Cl               0.577094000000000       0.830220000000000       0.679320000000000
   Cl               0.422897000000000       0.330230000000000       0.820678000000000
%ENDBLOCK positions_frac

FIX_COM : true

%BLOCK species_pot
   Li        1|1.0|14|16|18|10U:20(qc=7)
   Al        3|2.2|2.2|1.4|4|5|5|30:31:32U2U2
   Cl        3|1.8|5|6|7|30:31:32
%ENDBLOCK species_pot

%BLOCK species_lcao_states
   Li        3
   Al        2
   Cl        2
%ENDBLOCK species_lcao_states

SYMMETRY_TOL :     0.001000

%BLOCK symmetry_ops
# Symm. op. 1       E
          1.000000000000000       0.000000000000000       0.000000000000000
          0.000000000000000       1.000000000000000       0.000000000000000
          0.000000000000000       0.000000000000000       1.000000000000000
          0.000000000000000       0.000000000000000       0.000000000000000
%ENDBLOCK symmetry_ops

kpoint_mp_grid :    8   8   4

phonon_kpoint_mp_grid :    8   8   4

phonon_kpoint_mp_offset :        0.062500000000000       0.062500000000000       0.125000000000000

