# written by ASE

%BLOCK LATTICE_CART
 7.011332  0.000000  0.000000
-0.000006  6.474039  0.000000
-0.676005 -0.000013 12.884365
%ENDBLOCK LATTICE_CART

%BLOCK POSITIONS_FRAC
Li  0.131969  0.524266  0.854000
Li  0.868038  0.024263  0.646000
Li  0.868031  0.475732  0.145999
Li  0.131963  0.975739  0.354000
Al  0.694645  0.167234  0.401173
Al  0.305368  0.667232  0.098831
Al  0.305358  0.832768  0.598828
Al  0.694631  0.332768  0.901168
Cl  0.697650  0.304359  0.552663
Cl  0.302344  0.804346  0.947335
Cl  0.302351  0.695638  0.447337
Cl  0.697656  0.195657  0.052666
Cl  0.813481  0.862955  0.425415
Cl  0.186507  0.362963  0.074585
Cl  0.186517  0.137045  0.574586
Cl  0.813490  0.637036  0.925415
Cl  0.919895  0.305092  0.314318
Cl  0.080100  0.805083  0.185678
Cl  0.080106  0.694908  0.685682
Cl  0.919900  0.194917  0.814322
Cl  0.422904  0.169780  0.320680
Cl  0.577104  0.669771  0.179322
Cl  0.577094  0.830220  0.679320
Cl  0.422897  0.330230  0.820678
%ENDBLOCK POSITIONS_FRAC

kpoint_mp_grid :    8   8   4

spectral_kpoint_mp_grid :  8  8  4
