# CELL file written 11:00:32 (GMT-8.0) 3rd November 2025 from run ml_dos

%BLOCK lattice_cart
   ANG
       5.25329200000000        0.00000000000000        0.00000000000000    
     -0.100000000000000E-05    5.25329300000000        0.00000000000000    
     -0.100000000000000E-05  -0.500000000000000E-05    6.27505900000000    
%ENDBLOCK lattice_cart

%BLOCK positions_frac
   Li               0.315740000000000       0.684260000000000       0.749998000000000
   Li               0.684262000000000       0.315742000000000       0.250001000000000
   Li               0.184261000000000       0.184261000000000       0.500000000000000
   Li               0.815738000000000       0.815740000000000       0.000001000000000
   O                0.838487000000000       0.209462000000000       0.978532000000000
   O                0.161502000000000       0.790542000000000       0.478528000000000
   O                0.709461000000000       0.661513000000000       0.728533000000000
   O                0.290542000000000       0.338492000000000       0.228531000000000
   O                0.790542000000000       0.161503000000000       0.521469000000000
   O                0.209462000000000       0.838485000000000       0.021470000000000
   O                0.661509000000000       0.709462000000000       0.271469000000000
   O                0.338491000000000       0.290542000000000       0.771469000000000
   Al               0.675559000000000       0.324446000000000       0.749996000000000
   Al               0.324446000000000       0.675560000000000       0.250006000000000
   Al               0.824443000000000       0.824438000000000       0.499998000000000
   Al               0.175554000000000       0.175553000000000       0.000000000000000
%ENDBLOCK positions_frac

FIX_COM : true

%BLOCK species_pot
   Li        1|1.0|14|16|18|10U:20(qc=7)
   O         2|1.1|17|20|23|20:21(qc=8)
   Al        3|2.2|2.2|1.4|4|5|5|30:31:32U2U2
%ENDBLOCK species_pot

%BLOCK species_lcao_states
   Li        3
   O         2
   Al        2
%ENDBLOCK species_lcao_states

SYMMETRY_TOL :     0.001000

%BLOCK symmetry_ops
# Symm. op. 1       E
          1.000000000000000       0.000000000000000       0.000000000000000
          0.000000000000000       1.000000000000000       0.000000000000000
          0.000000000000000       0.000000000000000       1.000000000000000
          0.000000000000000       0.000000000000000       0.000000000000000
%ENDBLOCK symmetry_ops

kpoint_mp_grid :   10  10   8

phonon_kpoint_mp_grid :   10  10   8

phonon_kpoint_mp_offset :        0.050000000000000       0.050000000000000       0.062500000000000

