# written by ASE

%BLOCK LATTICE_CART
 5.253292  0.000000  0.000000
-0.000001  5.253293  0.000000
-0.000001 -0.000005  6.275059
%ENDBLOCK LATTICE_CART

%BLOCK POSITIONS_FRAC
Li  0.315740  0.684260  0.749998
Li  0.684262  0.315742  0.250001
Li  0.184261  0.184261  0.500000
Li  0.815738  0.815740  0.000001
Al  0.675559  0.324446  0.749996
Al  0.324446  0.675560  0.250006
Al  0.824443  0.824438  0.499998
Al  0.175554  0.175553  0.000000
O  0.838487  0.209462  0.978532
O  0.161502  0.790542  0.478528
O  0.709461  0.661513  0.728533
O  0.290542  0.338492  0.228531
O  0.790542  0.161503  0.521469
O  0.209462  0.838485  0.021470
O  0.661509  0.709462  0.271469
O  0.338491  0.290542  0.771469
%ENDBLOCK POSITIONS_FRAC

KPOINT_MP_GRID: 10 10 8

SPECTRAL_KPOINT_MP_GRID: 10 10 8
