# CELL file written 02:06:44 (GMT-5.0) 11th December 2025 from run ml_dos

%BLOCK lattice_cart
   ANG
       5.16448800000000        0.00000000000000        0.00000000000000    
     -0.100000000000000E-05    5.16448800000000        0.00000000000000    
      0.100000000000000E-05    0.00000000000000        6.24061800000000    
%ENDBLOCK lattice_cart

%BLOCK positions_frac
   Li               0.313699000000000       0.686300000000000       0.750000000000000
   Li               0.686300000000000       0.313700000000000       0.250000000000000
   Li               0.186300000000000       0.186300000000000       0.500000000000000
   Li               0.813700000000000       0.813700000000000       0.000001000000000
   O                0.835696000000000       0.207437000000000       0.978538000000000
   O                0.164304000000000       0.792562000000000       0.478538000000000
   O                0.707437000000000       0.664304000000000       0.728537000000000
   O                0.292563000000000       0.335696000000000       0.228537000000000
   O                0.792562000000000       0.164304000000000       0.521462000000000
   O                0.207438000000000       0.835697000000000       0.021462000000000
   O                0.664303000000000       0.707438000000000       0.271463000000000
   O                0.335696000000000       0.292562000000000       0.771462000000000
   Al               0.675604000000000       0.324396000000000       0.750000000000000
   Al               0.324396000000000       0.675604000000000       0.250000000000000
   Al               0.824396000000000       0.824396000000000       0.500000000000000
   Al               0.175604000000000       0.175604000000000       0.000000000000000
%ENDBLOCK positions_frac

FIX_COM : true

%BLOCK species_pot
   Li        1|1.0|14|16|18|10U:20(qc=7)
   O         2|1.1|17|20|23|20:21(qc=8)
   Al        3|2.2|2.2|1.4|4|5|5|30:31:32U2U2
%ENDBLOCK species_pot

%BLOCK species_lcao_states
   Li        3
   O         2
   Al        2
%ENDBLOCK species_lcao_states

SYMMETRY_TOL :     0.001000

%BLOCK symmetry_ops
# Symm. op. 1       E
          1.000000000000000       0.000000000000000       0.000000000000000
          0.000000000000000       1.000000000000000       0.000000000000000
          0.000000000000000       0.000000000000000       1.000000000000000
          0.000000000000000       0.000000000000000       0.000000000000000
%ENDBLOCK symmetry_ops

kpoint_mp_grid :   10  10   8

phonon_kpoint_mp_grid :   10  10   8

phonon_kpoint_mp_offset :        0.050000000000000       0.050000000000000       0.062500000000000

