# CELL file written 00:05:51 (GMT-5.0) 22nd December 2025 from run ml_dos

%BLOCK lattice_cart
   ANG
       8.04086600000000        0.00000000000000        0.00000000000000    
       3.65486900000000        7.16222500000000        0.00000000000000    
      -1.23780500000000      -0.758006000000000        14.4758840000000    
%ENDBLOCK lattice_cart

%BLOCK positions_frac
   Li               0.970572000000000       0.306542000000000       0.719357000000000
   Li               0.306543000000000       0.970572000000000       0.219357000000000
   Li               0.032517000000000       0.648511000000000       0.035229000000000
   Li               0.648511000000000       0.032515000000000       0.535230000000000
   Li               0.342651000000000       0.708339000000000       0.371497000000000
   Li               0.708338000000000       0.342650000000000       0.871497000000000
   O                0.157452000000000       0.805339000000000       0.484091000000000
   O                0.805339000000000       0.157451000000000       0.984092000000000
   O                0.171899000000000       0.477752000000000       0.146989000000000
   O                0.477752000000000       0.171898000000000       0.646989000000000
   O                0.239458000000000       0.235028000000000       0.286044000000000
   O                0.235028000000000       0.239456000000000       0.786044000000000
   O                0.903673000000000       0.884636000000000       0.118510000000000
   O                0.884636000000000       0.903674000000000       0.618510000000000
   O                0.792579000000000       0.073187000000000       0.293755000000000
   O                0.073185000000000       0.792580000000000       0.793754000000000
   O                0.144196000000000       0.463046000000000       0.446426000000000
   O                0.463046000000000       0.144196000000000       0.946427000000000
   O                0.623930000000000       0.425710000000000       0.623881000000000
   O                0.425712000000000       0.623928000000000       0.123881000000000
   O                0.832786000000000       0.419371000000000       0.307581000000000
   O                0.419371000000000       0.832787000000000       0.807581000000000
   O                0.622120000000000       0.557360000000000       0.444030000000000
   O                0.557362000000000       0.622120000000000       0.944031000000000
   O                0.531356000000000       0.806671000000000       0.308243000000000
   O                0.806670000000000       0.531357000000000       0.808243000000000
   O                0.527646000000000       0.806202000000000       0.609221000000000
   O                0.806199000000000       0.527648000000000       0.109221000000000
   O                0.277476000000000       0.070987000000000       0.456616000000000
   O                0.070987000000000       0.277475000000000       0.956617000000000
   O                0.910856000000000       0.675368000000000       0.276903000000000
   O                0.675369000000000       0.910853000000000       0.776904000000000
   O                0.163268000000000       0.840487000000000       0.268676000000000
   O                0.840488000000000       0.163266000000000       0.768676000000000
   O                0.455949000000000       0.451247000000000       0.294854000000000
   O                0.451247000000000       0.455949000000000       0.794855000000000
   O                0.891951000000000       0.185080000000000       0.476688000000000
   O                0.185079000000000       0.891951000000000       0.976688000000000
   O                0.553712000000000       0.235395000000000       0.129312000000000
   O                0.235394000000000       0.553713000000000       0.629311000000000
   O                0.793323000000000       0.775536000000000       0.455200000000000
   O                0.775535000000000       0.793323000000000       0.955200000000000
   O                0.156908000000000       0.068884000000000       0.634773000000000
   O                0.068884000000000       0.156908000000000       0.134774000000000
   O                0.527862000000000       0.218839000000000       0.433907000000000
   O                0.218840000000000       0.527860000000000       0.933906000000000
   O                0.898119000000000       0.531026000000000       0.596251000000000
   O                0.531026000000000       0.898117000000000       0.096251000000000
   V                0.400608000000000       0.441695000000000       0.177244000000000
   V                0.441692000000000       0.400608000000000       0.677245000000000
   V                0.739232000000000       0.666366000000000       0.354933000000000
   V                0.666367000000000       0.739235000000000       0.854932000000000
   V                0.111655000000000       0.033796000000000       0.516923000000000
   V                0.033795000000000       0.111655000000000       0.016923000000000
   V                0.669746000000000       0.586758000000000       0.566959000000000
   V                0.586755000000000       0.669745000000000       0.066959000000000
   V                0.300494000000000       0.252535000000000       0.403022000000000
   V                0.252535000000000       0.300493000000000       0.903023000000000
   V                0.944582000000000       0.870427000000000       0.238988000000000
   V                0.870425000000000       0.944582000000000       0.738988000000000
   Fe               0.697437000000000       0.298028000000000       0.372593000000000 SPIN= 5.000
   Fe               0.298027000000000       0.697437000000000       0.872593000000000 SPIN= 5.000
   Fe               0.025889000000000       0.673120000000000       0.539217000000000 SPIN= 5.000
   Fe               0.673119000000000       0.025888000000000       0.039215000000000 SPIN= 5.000
   Fe               0.398257000000000       0.007384000000000       0.708886000000000 SPIN= 5.000
   Fe               0.007385000000000       0.398253000000000       0.208885000000000 SPIN= 5.000
%ENDBLOCK positions_frac

FIX_COM : true

%BLOCK hubbard_u
   EV
   V         d:3.250000
   Fe        d:5.300000
%ENDBLOCK hubbard_u

QUANTISATION_AXIS :     0.000000    0.000000    1.000000

%BLOCK species_pot
   Li        1|1.0|14|16|18|10U:20(qc=7)
   O         2|1.1|17|20|23|20:21(qc=8)
   V         3|1.8|1.8|0.6|12|14|16|30U:40:31:32(qc=7)
   Fe        3|2.4|2.4|1.0|8|9|10|40:41:32U2U2(qc=5.5)
%ENDBLOCK species_pot

%BLOCK species_lcao_states
   Li        3
   O         2
   V         5
   Fe        3
%ENDBLOCK species_lcao_states

SYMMETRY_TOL :     0.001000

%BLOCK symmetry_ops
# Symm. op. 1       E
          1.000000000000000       0.000000000000000       0.000000000000000
          0.000000000000000       1.000000000000000       0.000000000000000
          0.000000000000000       0.000000000000000       1.000000000000000
          0.000000000000000       0.000000000000000       0.000000000000000
%ENDBLOCK symmetry_ops

kpoint_mp_grid :    3   3   2

phonon_kpoint_mp_grid :    3   3   2

phonon_kpoint_mp_offset :        0.000000000000000       0.000000000000000       0.250000000000000

