# CELL file written 03:07:48 (GMT-4.0) 30th October 2025 from run ml_dos

%BLOCK lattice_cart
   ANG
       8.61227000000000        0.00000000000000        0.00000000000000    
       4.30512400000000        7.46276600000000        0.00000000000000    
       4.30511700000000        2.48727200000000        7.04274400000000    
%ENDBLOCK lattice_cart

%BLOCK positions_frac
   Li               0.500386000000000       0.499559000000000       0.499723000000000
   Li               0.000141000000000       0.999941000000000       0.999726000000000
   O                0.498978000000000       0.124053000000000       0.307036000000000
   O                0.124191000000000       0.307242000000000       0.497671000000000
   O                0.307640000000000       0.497448000000000       0.123951000000000
   O                0.998053000000000       0.807622000000000       0.623628000000000
   O                0.807577000000000       0.623996000000000       0.997372000000000
   O                0.623713000000000       0.998099000000000       0.807869000000000
   O                0.502296000000000       0.875981000000000       0.692698000000000
   O                0.875490000000000       0.692750000000000       0.502624000000000
   O                0.692241000000000       0.501856000000000       0.876341000000000
   O                0.002153000000000       0.192522000000000       0.375975000000000
   O                0.192029000000000       0.376342000000000       0.002337000000000
   O                0.376462000000000       0.002820000000000       0.192126000000000
   O                0.443308000000000       0.231251000000000       0.584511000000000
   O                0.231229000000000       0.584128000000000       0.443336000000000
   O                0.584048000000000       0.444304000000000       0.231107000000000
   O                0.942818000000000       0.084747000000000       0.731006000000000
   O                0.084917000000000       0.731436000000000       0.943043000000000
   O                0.731648000000000       0.942641000000000       0.084455000000000
   O                0.555765000000000       0.769123000000000       0.416396000000000
   O                0.768750000000000       0.416507000000000       0.555329000000000
   O                0.416045000000000       0.555590000000000       0.769088000000000
   O                0.056234000000000       0.915974000000000       0.269132000000000
   O                0.915442000000000       0.268661000000000       0.056437000000000
   O                0.268936000000000       0.056026000000000       0.916230000000000
   P                0.540936000000000       0.959248000000000       0.250101000000000
   P                0.959135000000000       0.250152000000000       0.540186000000000
   P                0.250089000000000       0.540214000000000       0.959649000000000
   P                0.040477000000000       0.750032000000000       0.459625000000000
   P                0.749887000000000       0.459608000000000       0.040453000000000
   P                0.459438000000000       0.040584000000000       0.750279000000000
   Ti               0.358673000000000       0.358448000000000       0.358480000000000
   Ti               0.858494000000000       0.858394000000000       0.858373000000000
   Ti               0.640982000000000       0.641312000000000       0.642027000000000
   Ti               0.141398000000000       0.141389000000000       0.141680000000000
%ENDBLOCK positions_frac

FIX_COM : true

%BLOCK species_pot
   Li        1|1.0|14|16|18|10U:20(qc=7)
   O         2|1.1|17|20|23|20:21(qc=8)
   P         3|1.8|4|4|5|30:31:32
   Ti        3|1.8|9|10|11|30U:40:31:32(qc=5.5)
%ENDBLOCK species_pot

%BLOCK species_lcao_states
   Li        3
   O         2
   P         2
   Ti        5
%ENDBLOCK species_lcao_states

SYMMETRY_TOL :     0.001000

%BLOCK symmetry_ops
# Symm. op. 1       E
          1.000000000000000       0.000000000000000       0.000000000000000
          0.000000000000000       1.000000000000000       0.000000000000000
          0.000000000000000       0.000000000000000       1.000000000000000
          0.000000000000000       0.000000000000000       0.000000000000000
%ENDBLOCK symmetry_ops

kpoint_mp_grid :    4   4   4

phonon_kpoint_mp_grid :    4   4   4

phonon_kpoint_mp_offset :        0.125000000000000       0.125000000000000       0.125000000000000

