# written by ASE

%BLOCK LATTICE_CART
 8.612270  0.000000  0.000000
 4.305124  7.462766  0.000000
 4.305117  2.487272  7.042744
%ENDBLOCK LATTICE_CART

%BLOCK POSITIONS_FRAC
Ti  0.358673  0.358448  0.358480
Ti  0.858494  0.858394  0.858373
Ti  0.640982  0.641312  0.642027
Ti  0.141398  0.141389  0.141680
P  0.540936  0.959248  0.250101
P  0.959135  0.250152  0.540186
P  0.250089  0.540214  0.959649
P  0.040477  0.750032  0.459625
P  0.749887  0.459608  0.040453
P  0.459438  0.040584  0.750279
O  0.498978  0.124053  0.307036
O  0.124191  0.307242  0.497671
O  0.307640  0.497448  0.123951
O  0.998053  0.807622  0.623628
O  0.807577  0.623996  0.997372
O  0.623713  0.998099  0.807869
O  0.502296  0.875981  0.692698
O  0.875490  0.692750  0.502624
O  0.692241  0.501856  0.876341
O  0.002153  0.192522  0.375975
O  0.192029  0.376342  0.002337
O  0.376462  0.002820  0.192126
O  0.443308  0.231251  0.584511
O  0.231229  0.584128  0.443336
O  0.584048  0.444304  0.231107
O  0.942818  0.084747  0.731006
O  0.084917  0.731436  0.943043
O  0.731648  0.942641  0.084455
O  0.555765  0.769123  0.416396
O  0.768750  0.416507  0.555329
O  0.416045  0.555590  0.769088
O  0.056234  0.915974  0.269132
O  0.915442  0.268661  0.056437
O  0.268936  0.056026  0.916230
Li  0.500386  0.499559  0.499723
Li  0.000141  0.999941  0.999726
%ENDBLOCK POSITIONS_FRAC

KPOINT_MP_GRID: 4 4 4

spectral_kpoint_mp_grid: 4 4 4
