# written by ASE

%BLOCK LATTICE_CART
10.472915  0.000000  0.000000
-0.000949  6.081547  0.000000
-0.000020 -0.000223  4.737659
%ENDBLOCK LATTICE_CART

%BLOCK POSITIONS_FRAC
Li  0.499988  0.000048  0.499771
Li  0.000113  0.499768  0.999943
Li  0.500070  0.499862  0.500136
Li  0.000010  0.000097  0.000321
Fe  0.780141  0.249741  0.522263 spin 4.5
Fe  0.279961  0.249743  0.977748 spin -4.5
Fe  0.219804  0.750244  0.477910 spin 4.5
Fe  0.719891  0.750262  0.022313 spin -4.5
P  0.593615  0.249852  0.081479
P  0.093445  0.249924  0.418518
P  0.406395  0.750138  0.918433
P  0.906528  0.750160  0.581417
O  0.596800  0.249877  0.756838
O  0.096560  0.249884  0.743023
O  0.403276  0.750221  0.243163
O  0.903426  0.750195  0.256905
O  0.956230  0.249766  0.294752
O  0.456120  0.249726  0.205296
O  0.043719  0.750221  0.705328
O  0.543916  0.750242  0.794621
O  0.663909  0.046501  0.215498
O  0.163600  0.453359  0.284493
O  0.336218  0.546640  0.784528
O  0.836274  0.953488  0.715461
O  0.336139  0.953471  0.784429
O  0.836309  0.546703  0.715364
O  0.663816  0.453315  0.215555
O  0.163727  0.046550  0.284498
%ENDBLOCK POSITIONS_FRAC

%BLOCK hubbard_u
   EV
   Fe        d:4.400000
%ENDBLOCK hubbard_u

kpoint_mp_grid :    2   4   5

spectral_kpoint_mp_grid :  2   4   5
