# CELL file written 00:19:06 (GMT-5.0) 20th February 2026 from run ml_dos

%BLOCK lattice_cart
   ANG
       10.4729150000000        0.00000000000000        0.00000000000000    
     -0.949000000000000E-03    6.08154700000000        0.00000000000000    
     -0.200000000000000E-04  -0.223000000000000E-03    4.73765900000000    
%ENDBLOCK lattice_cart

%BLOCK positions_frac
   Li               0.499988000000000       0.000048000000000       0.499771000000000
   Li               0.000113000000000       0.499768000000000       0.999943000000000
   Li               0.500070000000000       0.499862000000000       0.500136000000000
   Li               0.000010000000000       0.000097000000000       0.000321000000000
   O                0.596800000000000       0.249877000000000       0.756838000000000
   O                0.096560000000000       0.249884000000000       0.743023000000000
   O                0.403276000000000       0.750221000000000       0.243163000000000
   O                0.903426000000000       0.750195000000000       0.256905000000000
   O                0.956230000000000       0.249766000000000       0.294752000000000
   O                0.456120000000000       0.249726000000000       0.205296000000000
   O                0.043719000000000       0.750221000000000       0.705328000000000
   O                0.543916000000000       0.750242000000000       0.794621000000000
   O                0.663909000000000       0.046501000000000       0.215498000000000
   O                0.163600000000000       0.453359000000000       0.284493000000000
   O                0.336218000000000       0.546640000000000       0.784528000000000
   O                0.836274000000000       0.953488000000000       0.715461000000000
   O                0.336139000000000       0.953471000000000       0.784429000000000
   O                0.836309000000000       0.546703000000000       0.715364000000000
   O                0.663816000000000       0.453315000000000       0.215555000000000
   O                0.163727000000000       0.046550000000000       0.284498000000000
   P                0.593615000000000       0.249852000000000       0.081479000000000
   P                0.093445000000000       0.249924000000000       0.418518000000000
   P                0.406395000000000       0.750138000000000       0.918433000000000
   P                0.906528000000000       0.750160000000000       0.581417000000000
   Fe               0.780141000000000       0.249741000000000       0.522263000000000 SPIN= 4.500
   Fe               0.279961000000000       0.249743000000000       0.977748000000000 SPIN=-4.500
   Fe               0.219804000000000       0.750244000000000       0.477910000000000 SPIN= 4.500
   Fe               0.719891000000000       0.750262000000000       0.022313000000000 SPIN=-4.500
%ENDBLOCK positions_frac

FIX_COM : true

%BLOCK hubbard_u
   EV
   Fe        d:4.400000
%ENDBLOCK hubbard_u

QUANTISATION_AXIS :     0.000000    0.000000    1.000000

%BLOCK species_pot
   Li        1|1.0|14|16|18|10U:20(qc=7)
   O         2|1.1|17|20|23|20:21(qc=8)
   P         3|1.8|4|4|5|30:31:32
   Fe        3|2.4|2.4|1.0|8|9|10|40:41:32U2U2(qc=5.5)
%ENDBLOCK species_pot

%BLOCK species_lcao_states
   Li        3
   O         2
   P         2
   Fe        3
%ENDBLOCK species_lcao_states

SYMMETRY_TOL :     0.001000

%BLOCK symmetry_ops
# Symm. op. 1       E
          1.000000000000000       0.000000000000000       0.000000000000000
          0.000000000000000       1.000000000000000       0.000000000000000
          0.000000000000000       0.000000000000000       1.000000000000000
          0.000000000000000       0.000000000000000       0.000000000000000
%ENDBLOCK symmetry_ops

kpoint_mp_grid :    2   4   5

phonon_kpoint_mp_grid :    2   4   5

phonon_kpoint_mp_offset :        0.250000000000000       0.125000000000000       0.000000000000000

