# CELL file written 13:40:16 (GMT-5.0) 20th February 2026 from run ml_dos

%BLOCK lattice_cart
   ANG
       8.04532900000000        0.00000000000000        0.00000000000000    
       3.65110800000000        7.16915100000000        0.00000000000000    
      -1.07853900000000      -0.661074000000000        14.4379070000000    
%ENDBLOCK lattice_cart

%BLOCK positions_frac
   Li               0.972128000000000       0.311992000000000       0.718275000000000
   Li               0.311992000000000       0.972128000000000       0.218275000000000
   Li               0.018124000000000       0.641943000000000       0.035852000000000
   Li               0.641943000000000       0.018124000000000       0.535852000000000
   Li               0.338053000000000       0.704048000000000       0.372407000000000
   Li               0.704048000000000       0.338053000000000       0.872407000000000
   O                0.155847000000000       0.805483000000000       0.485160000000000
   O                0.805483000000000       0.155847000000000       0.985160000000000
   O                0.175235000000000       0.480235000000000       0.148261000000000
   O                0.480235000000000       0.175235000000000       0.648261000000000
   O                0.238837000000000       0.234083000000000       0.286476000000000
   O                0.234083000000000       0.238837000000000       0.786476000000000
   O                0.901474000000000       0.884418000000000       0.117937000000000
   O                0.884418000000000       0.901474000000000       0.617937000000000
   O                0.796657000000000       0.072044000000000       0.293129000000000
   O                0.072044000000000       0.796657000000000       0.793129000000000
   O                0.151031000000000       0.461424000000000       0.447332000000000
   O                0.461424000000000       0.151031000000000       0.947332000000000
   O                0.616924000000000       0.440750000000000       0.623183000000000
   O                0.440750000000000       0.616924000000000       0.123183000000000
   O                0.828881000000000       0.418712000000000       0.305532000000000
   O                0.418712000000000       0.828881000000000       0.805532000000000
   O                0.619537000000000       0.555571000000000       0.442140000000000
   O                0.555571000000000       0.619537000000000       0.942140000000000
   O                0.534515000000000       0.810238000000000       0.307404000000000
   O                0.810238000000000       0.534515000000000       0.807404000000000
   O                0.530161000000000       0.814545000000000       0.606448000000000
   O                0.814545000000000       0.530161000000000       0.106448000000000
   O                0.277546000000000       0.070150000000000       0.457478000000000
   O                0.070150000000000       0.277546000000000       0.957478000000000
   O                0.913734000000000       0.674977000000000       0.278026000000000
   O                0.674977000000000       0.913734000000000       0.778026000000000
   O                0.167801000000000       0.835664000000000       0.265917000000000
   O                0.835664000000000       0.167801000000000       0.765917000000000
   O                0.456204000000000       0.450030000000000       0.296062000000000
   O                0.450030000000000       0.456204000000000       0.796062000000000
   O                0.892391000000000       0.186470000000000       0.476778000000000
   O                0.186470000000000       0.892391000000000       0.976778000000000
   O                0.555690000000000       0.233956000000000       0.132417000000000
   O                0.233956000000000       0.555690000000000       0.632417000000000
   O                0.789377000000000       0.767405000000000       0.458073000000000
   O                0.767405000000000       0.789377000000000       0.958073000000000
   O                0.154482000000000       0.073614000000000       0.635164000000000
   O                0.073614000000000       0.154482000000000       0.135164000000000
   O                0.532832000000000       0.208190000000000       0.432214000000000
   O                0.208190000000000       0.532832000000000       0.932214000000000
   O                0.899556000000000       0.529630000000000       0.597702000000000
   O                0.529630000000000       0.899556000000000       0.097702000000000
   V                0.403189000000000       0.442023000000000       0.178116000000000
   V                0.442023000000000       0.403189000000000       0.678116000000000
   V                0.739333000000000       0.664982000000000       0.354040000000000
   V                0.664982000000000       0.739333000000000       0.854040000000000
   V                0.109994000000000       0.034131000000000       0.517708000000000
   V                0.034131000000000       0.109994000000000       0.017708000000000
   V                0.670809000000000       0.594108000000000       0.564577000000000
   V                0.594108000000000       0.670809000000000       0.064577000000000
   V                0.303241000000000       0.250228000000000       0.402802000000000
   V                0.250228000000000       0.303241000000000       0.902802000000000
   V                0.947539000000000       0.870501000000000       0.238158000000000
   V                0.870501000000000       0.947539000000000       0.738158000000000
   Fe               0.698497000000000       0.296612000000000       0.372895000000000 SPIN= 5.000
   Fe               0.296612000000000       0.698497000000000       0.872895000000000 SPIN= 5.000
   Fe               0.027674000000000       0.670005000000000       0.539965000000000 SPIN= 5.000
   Fe               0.670005000000000       0.027674000000000       0.039965000000000 SPIN= 5.000
   Fe               0.397482000000000       0.007860000000000       0.709170000000000 SPIN= 5.000
   Fe               0.007860000000000       0.397482000000000       0.209170000000000 SPIN= 5.000
%ENDBLOCK positions_frac

FIX_COM : true

%BLOCK hubbard_u
   EV
   V         d:3.250000
   Fe        d:5.300000
%ENDBLOCK hubbard_u

QUANTISATION_AXIS :     0.000000    0.000000    1.000000

%BLOCK species_pot
   Li        1|1.0|14|16|18|10U:20(qc=7)
   O         2|1.1|17|20|23|20:21(qc=8)
   V         3|1.8|1.8|0.6|12|14|16|30U:40:31:32(qc=7)
   Fe        3|2.4|2.4|1.0|8|9|10|40:41:32U2U2(qc=5.5)
%ENDBLOCK species_pot

%BLOCK species_lcao_states
   Li        3
   O         2
   V         5
   Fe        3
%ENDBLOCK species_lcao_states

SYMMETRY_TOL :     0.001000

%BLOCK symmetry_ops
# Symm. op. 1       E
          1.000000000000000       0.000000000000000       0.000000000000000
          0.000000000000000       1.000000000000000       0.000000000000000
          0.000000000000000       0.000000000000000       1.000000000000000
          0.000000000000000       0.000000000000000       0.000000000000000
%ENDBLOCK symmetry_ops

kpoint_mp_grid :    3   3   2

phonon_kpoint_mp_grid :    3   3   2

phonon_kpoint_mp_offset :        0.000000000000000       0.000000000000000       0.250000000000000

