# written by ASE

%BLOCK LATTICE_CART
 8.445412  0.000000  0.000000
 4.279563  7.282622  0.000000
 4.279558  2.449305  6.865607
%ENDBLOCK LATTICE_CART

%BLOCK POSITIONS_FRAC
P  0.538118  0.961586  0.250362
P  0.961805  0.250140  0.538426
P  0.249763  0.538202  0.961932
P  0.038433  0.750362  0.461773
P  0.749985  0.461776  0.037747
P  0.461942  0.038547  0.749578
O  0.507475  0.129776  0.298019
O  0.129445  0.297643  0.509738
O  0.295716  0.507848  0.130961
O  0.009284  0.797410  0.629525
O  0.797258  0.630383  0.006603
O  0.630285  0.009170  0.796290
O  0.492762  0.870202  0.702232
O  0.870024  0.702852  0.492498
O  0.701821  0.490792  0.870789
O  0.992673  0.203076  0.369871
O  0.202630  0.370176  0.991428
O  0.370631  0.991108  0.202335
O  0.442869  0.234345  0.577722
O  0.234341  0.578377  0.442171
O  0.577706  0.443626  0.233441
O  0.943479  0.077652  0.733856
O  0.077769  0.734039  0.943052
O  0.733562  0.942887  0.077967
O  0.556422  0.766218  0.422836
O  0.765991  0.422504  0.556497
O  0.422319  0.556483  0.766666
O  0.056094  0.922835  0.266419
O  0.922327  0.265942  0.056520
O  0.266742  0.056176  0.922428
Li  0.500188  0.498998  0.500005
Li  0.000255  0.998724  0.000394
Ge  0.358641  0.358978  0.358829
Ge  0.858766  0.858832  0.858558
Ge  0.641251  0.641056  0.641391
Ge  0.141231  0.141281  0.141141
%ENDBLOCK POSITIONS_FRAC

KPOINT_MP_GRID: 4 4 4

spectral_kpoint_mp_grid: 4 4 4
