# CELL file written 03:17:52 (GMT-4.0) 30th October 2025 from run ml_dos

%BLOCK lattice_cart
   ANG
       8.44541200000000        0.00000000000000        0.00000000000000    
       4.27956300000000        7.28262200000000        0.00000000000000    
       4.27955800000000        2.44930500000000        6.86560700000000    
%ENDBLOCK lattice_cart

%BLOCK positions_frac
   Li               0.500188000000000       0.498998000000000       0.500005000000000
   Li               0.000255000000000       0.998724000000000       0.000394000000000
   O                0.507475000000000       0.129776000000000       0.298019000000000
   O                0.129445000000000       0.297643000000000       0.509738000000000
   O                0.295716000000000       0.507848000000000       0.130961000000000
   O                0.009284000000000       0.797410000000000       0.629525000000000
   O                0.797258000000000       0.630383000000000       0.006603000000000
   O                0.630285000000000       0.009170000000000       0.796290000000000
   O                0.492762000000000       0.870202000000000       0.702232000000000
   O                0.870024000000000       0.702852000000000       0.492498000000000
   O                0.701821000000000       0.490792000000000       0.870789000000000
   O                0.992673000000000       0.203076000000000       0.369871000000000
   O                0.202630000000000       0.370176000000000       0.991428000000000
   O                0.370631000000000       0.991108000000000       0.202335000000000
   O                0.442869000000000       0.234345000000000       0.577722000000000
   O                0.234341000000000       0.578377000000000       0.442171000000000
   O                0.577706000000000       0.443626000000000       0.233441000000000
   O                0.943479000000000       0.077652000000000       0.733856000000000
   O                0.077769000000000       0.734039000000000       0.943052000000000
   O                0.733562000000000       0.942887000000000       0.077967000000000
   O                0.556422000000000       0.766218000000000       0.422836000000000
   O                0.765991000000000       0.422504000000000       0.556497000000000
   O                0.422319000000000       0.556483000000000       0.766666000000000
   O                0.056094000000000       0.922835000000000       0.266419000000000
   O                0.922327000000000       0.265942000000000       0.056520000000000
   O                0.266742000000000       0.056176000000000       0.922428000000000
   P                0.538118000000000       0.961586000000000       0.250362000000000
   P                0.961805000000000       0.250140000000000       0.538426000000000
   P                0.249763000000000       0.538202000000000       0.961932000000000
   P                0.038433000000000       0.750362000000000       0.461773000000000
   P                0.749985000000000       0.461776000000000       0.037747000000000
   P                0.461942000000000       0.038547000000000       0.749578000000000
   Ge               0.358641000000000       0.358978000000000       0.358829000000000
   Ge               0.858766000000000       0.858832000000000       0.858558000000000
   Ge               0.641251000000000       0.641056000000000       0.641391000000000
   Ge               0.141231000000000       0.141281000000000       0.141141000000000
%ENDBLOCK positions_frac

FIX_COM : true

%BLOCK species_pot
   Li        1|1.0|14|16|18|10U:20(qc=7)
   O         2|1.1|17|20|23|20:21(qc=8)
   P         3|1.8|4|4|5|30:31:32
   Ge        3|2.0|10|12|13|40:41:32(qc=6)
%ENDBLOCK species_pot

%BLOCK species_lcao_states
   Li        3
   O         2
   P         2
   Ge        4
%ENDBLOCK species_lcao_states

SYMMETRY_TOL :     0.001000

%BLOCK symmetry_ops
# Symm. op. 1       E
          1.000000000000000       0.000000000000000       0.000000000000000
          0.000000000000000       1.000000000000000       0.000000000000000
          0.000000000000000       0.000000000000000       1.000000000000000
          0.000000000000000       0.000000000000000       0.000000000000000
%ENDBLOCK symmetry_ops

kpoint_mp_grid :    4   4   4

phonon_kpoint_mp_grid :    4   4   4

phonon_kpoint_mp_offset :        0.125000000000000       0.125000000000000       0.125000000000000

