# CELL file written 03:15:07 (GMT-4.0) 30th October 2025 from run ml_dos

%BLOCK lattice_cart
   ANG
       8.36049800000000        0.00000000000000        0.00000000000000    
       4.15118900000000        7.25711300000000        0.00000000000000    
       4.15120600000000        2.40781400000000        6.84602800000000    
%ENDBLOCK lattice_cart

%BLOCK positions_frac
   Li               0.499998000000000       0.500003000000000       0.500002000000000
   Li               0.000000000000000       0.000000000000000       0.000000000000000
   O                0.502344000000000       0.127766000000000       0.307538000000000
   O                0.127762000000000       0.307534000000000       0.502354000000000
   O                0.307543000000000       0.502345000000000       0.127765000000000
   O                0.002341000000000       0.807529000000000       0.627776000000000
   O                0.807541000000000       0.627770000000000       0.002338000000000
   O                0.627766000000000       0.002346000000000       0.807539000000000
   O                0.497659000000000       0.872224000000000       0.692466000000000
   O                0.872234000000000       0.692459000000000       0.497667000000000
   O                0.692464000000000       0.497647000000000       0.872234000000000
   O                0.997653000000000       0.192465000000000       0.372235000000000
   O                0.192464000000000       0.372228000000000       0.997656000000000
   O                0.372234000000000       0.997652000000000       0.192466000000000
   O                0.447746000000000       0.236846000000000       0.582047000000000
   O                0.236836000000000       0.582052000000000       0.447753000000000
   O                0.582050000000000       0.447746000000000       0.236840000000000
   O                0.947746000000000       0.082036000000000       0.736845000000000
   O                0.082045000000000       0.736840000000000       0.947743000000000
   O                0.736849000000000       0.947740000000000       0.082034000000000
   O                0.552249000000000       0.763158000000000       0.417958000000000
   O                0.763156000000000       0.417966000000000       0.552254000000000
   O                0.417950000000000       0.552254000000000       0.763163000000000
   O                0.052249000000000       0.917966000000000       0.263153000000000
   O                0.917957000000000       0.263159000000000       0.052246000000000
   O                0.263166000000000       0.052245000000000       0.917954000000000
   P                0.537816000000000       0.962190000000000       0.249994000000000
   P                0.962185000000000       0.250000000000000       0.537814000000000
   P                0.249995000000000       0.537805000000000       0.962197000000000
   P                0.037802000000000       0.750011000000000       0.462190000000000
   P                0.750003000000000       0.462198000000000       0.037800000000000
   P                0.462200000000000       0.037804000000000       0.749995000000000
   Ge               0.361105000000000       0.361115000000000       0.361100000000000
   Ge               0.861112000000000       0.861111000000000       0.861095000000000
   Ge               0.638890000000000       0.638891000000000       0.638899000000000
   Ge               0.138891000000000       0.138896000000000       0.138889000000000
%ENDBLOCK positions_frac

FIX_COM : true

%BLOCK species_pot
   Li        1|1.0|14|16|18|10U:20(qc=7)
   O         2|1.1|17|20|23|20:21(qc=8)
   P         3|1.8|4|4|5|30:31:32
   Ge        3|2.0|10|12|13|40:41:32(qc=6)
%ENDBLOCK species_pot

%BLOCK species_lcao_states
   Li        3
   O         2
   P         2
   Ge        4
%ENDBLOCK species_lcao_states

SYMMETRY_TOL :     0.001000

%BLOCK symmetry_ops
# Symm. op. 1       E
          1.000000000000000       0.000000000000000       0.000000000000000
          0.000000000000000       1.000000000000000       0.000000000000000
          0.000000000000000       0.000000000000000       1.000000000000000
          0.000000000000000       0.000000000000000       0.000000000000000
%ENDBLOCK symmetry_ops

kpoint_mp_grid :    4   4   4

phonon_kpoint_mp_grid :    4   4   4

phonon_kpoint_mp_offset :        0.125000000000000       0.125000000000000       0.125000000000000

