# written by ASE

%BLOCK LATTICE_CART
 8.360498  0.000000  0.000000
 4.151189  7.257113  0.000000
 4.151206  2.407814  6.846028
%ENDBLOCK LATTICE_CART

%BLOCK POSITIONS_FRAC
P  0.537816  0.962190  0.249994
P  0.962185  0.250000  0.537814
P  0.249995  0.537805  0.962197
P  0.037802  0.750011  0.462190
P  0.750003  0.462198  0.037800
P  0.462200  0.037804  0.749995
O  0.502344  0.127766  0.307538
O  0.127762  0.307534  0.502354
O  0.307543  0.502345  0.127765
O  0.002341  0.807529  0.627776
O  0.807541  0.627770  0.002338
O  0.627766  0.002346  0.807539
O  0.497659  0.872224  0.692466
O  0.872234  0.692459  0.497667
O  0.692464  0.497647  0.872234
O  0.997653  0.192465  0.372235
O  0.192464  0.372228  0.997656
O  0.372234  0.997652  0.192466
O  0.447746  0.236846  0.582047
O  0.236836  0.582052  0.447753
O  0.582050  0.447746  0.236840
O  0.947746  0.082036  0.736845
O  0.082045  0.736840  0.947743
O  0.736849  0.947740  0.082034
O  0.552249  0.763158  0.417958
O  0.763156  0.417966  0.552254
O  0.417950  0.552254  0.763163
O  0.052249  0.917966  0.263153
O  0.917957  0.263159  0.052246
O  0.263166  0.052245  0.917954
Li  0.499998  0.500003  0.500002
Li  0.000000  0.000000  0.000000
Ge  0.361105  0.361115  0.361100
Ge  0.861112  0.861111  0.861095
Ge  0.638890  0.638891  0.638899
Ge  0.138891  0.138896  0.138889
%ENDBLOCK POSITIONS_FRAC

KPOINT_MP_GRID: 4 4 4

spectral_kpoint_mp_grid: 4 4 4
