# CELL file written 01:07:58 (GMT-5.0) 11th December 2025 from run ml_dos

%BLOCK lattice_cart
   ANG
       6.96168600000000        0.00000000000000        0.00000000000000    
       0.00000000000000        6.66537100000000        0.00000000000000    
     -0.740051000000000       0.300000000000000E-05    12.8619690000000    
%ENDBLOCK lattice_cart

%BLOCK positions_frac
   Li               0.148843000000000       0.523806000000000       0.866509000000000
   Li               0.851155000000000       0.023804000000000       0.633493000000000
   Li               0.851159000000000       0.476193000000000       0.133490000000000
   Li               0.148842000000000       0.976190000000000       0.366509000000000
   Al               0.705453000000000       0.162404000000000       0.396187000000000
   Al               0.294543000000000       0.662404000000000       0.103816000000000
   Al               0.294547000000000       0.837593000000000       0.603820000000000
   Al               0.705451000000000       0.337595000000000       0.896186000000000
   Cl               0.692956000000000       0.311607000000000       0.542009000000000
   Cl               0.307045000000000       0.811610000000000       0.957993000000000
   Cl               0.307039000000000       0.688400000000000       0.457992000000000
   Cl               0.692959000000000       0.188396000000000       0.042008000000000
   Cl               0.812735000000000       0.865598000000000       0.432012000000000
   Cl               0.187263000000000       0.365594000000000       0.067988000000000
   Cl               0.187261000000000       0.134399000000000       0.567984000000000
   Cl               0.812735000000000       0.634402000000000       0.932013000000000
   Cl               0.927435000000000       0.293402000000000       0.306841000000000
   Cl               0.072565000000000       0.793405000000000       0.193157000000000
   Cl               0.072559000000000       0.706598000000000       0.693153000000000
   Cl               0.927438000000000       0.206594000000000       0.806842000000000
   Cl               0.435996000000000       0.163134000000000       0.309584000000000
   Cl               0.564008000000000       0.663134000000000       0.190414000000000
   Cl               0.564020000000000       0.836871000000000       0.690414000000000
   Cl               0.435991000000000       0.336867000000000       0.809585000000000
%ENDBLOCK positions_frac

FIX_COM : true

%BLOCK species_pot
   Li        1|1.0|14|16|18|10U:20(qc=7)
   Al        3|2.2|2.2|1.4|4|5|5|30:31:32U2U2
   Cl        3|1.8|5|6|7|30:31:32
%ENDBLOCK species_pot

%BLOCK species_lcao_states
   Li        3
   Al        2
   Cl        2
%ENDBLOCK species_lcao_states

SYMMETRY_TOL :     0.001000

%BLOCK symmetry_ops
# Symm. op. 1       E
          1.000000000000000       0.000000000000000       0.000000000000000
          0.000000000000000       1.000000000000000       0.000000000000000
          0.000000000000000       0.000000000000000       1.000000000000000
          0.000000000000000       0.000000000000000       0.000000000000000
%ENDBLOCK symmetry_ops

kpoint_mp_grid :    8   8   4

phonon_kpoint_mp_grid :    8   8   4

phonon_kpoint_mp_offset :        0.062500000000000       0.062500000000000       0.125000000000000

