# written by ASE

%BLOCK LATTICE_CART
 6.961686  0.000000  0.000000
-0.000000  6.665371  0.000000
-0.740051  0.000003 12.861969
%ENDBLOCK LATTICE_CART

%BLOCK POSITIONS_FRAC
Li  0.148843  0.523806  0.866509
Li  0.851155  0.023804  0.633493
Li  0.851159  0.476193  0.133490
Li  0.148842  0.976190  0.366509
Al  0.705453  0.162404  0.396187
Al  0.294543  0.662404  0.103816
Al  0.294547  0.837593  0.603820
Al  0.705451  0.337595  0.896186
Cl  0.692956  0.311607  0.542009
Cl  0.307045  0.811610  0.957993
Cl  0.307039  0.688400  0.457992
Cl  0.692959  0.188396  0.042008
Cl  0.812735  0.865598  0.432012
Cl  0.187263  0.365594  0.067988
Cl  0.187261  0.134399  0.567984
Cl  0.812735  0.634402  0.932013
Cl  0.927435  0.293402  0.306841
Cl  0.072565  0.793405  0.193157
Cl  0.072559  0.706598  0.693153
Cl  0.927438  0.206594  0.806842
Cl  0.435996  0.163134  0.309584
Cl  0.564008  0.663134  0.190414
Cl  0.564020  0.836871  0.690414
Cl  0.435991  0.336867  0.809585
%ENDBLOCK POSITIONS_FRAC

kpoint_mp_grid :    8   8   4

spectral_kpoint_mp_grid :  8  8  4