# written by ASE

%BLOCK LATTICE_CART
 8.940986  0.000000  0.000000
-0.000004  9.130630  0.000000
-0.081496 -0.000001 12.604954
%ENDBLOCK LATTICE_CART

%BLOCK POSITIONS_FRAC
Li  0.211812  0.724482  0.176641
Li  0.711812  0.775517  0.676640
Li  0.788188  0.275516  0.823358
Li  0.288189  0.224482  0.323359
Zr  0.748368  0.953893  0.889570
Zr  0.248368  0.546107  0.389569
Zr  0.251632  0.046108  0.110430
Zr  0.751632  0.453893  0.610431
Zr  0.749361  0.526585  0.120160
Zr  0.249362  0.973415  0.620160
Zr  0.250639  0.473414  0.879840
Zr  0.750638  0.026585  0.379840
P  0.884434  0.597638  0.853734
P  0.384434  0.902363  0.353734
P  0.115566  0.402362  0.146266
P  0.615565  0.097637  0.646266
P  0.900671  0.879288  0.146123
P  0.400670  0.620713  0.646122
P  0.099330  0.120712  0.853877
P  0.599330  0.379288  0.353877
P  0.462942  0.748905  0.010535
P  0.962943  0.751095  0.510534
P  0.537058  0.251095  0.989465
P  0.037058  0.248906  0.489466
O  0.850618  0.921667  0.032542
O  0.350618  0.578333  0.532541
O  0.149381  0.078332  0.967459
O  0.649383  0.421668  0.467458
O  0.822224  0.750331  0.819173
O  0.322223  0.749670  0.319173
O  0.177777  0.249670  0.180827
O  0.677777  0.250330  0.680826
O  0.558914  0.854735  0.943895
O  0.058915  0.645265  0.443894
O  0.441086  0.145265  0.056106
O  0.941086  0.354736  0.556106
O  0.926583  0.099518  0.845467
O  0.426583  0.400482  0.345467
O  0.073418  0.900482  0.154534
O  0.573417  0.599518  0.654532
O  0.672085  0.979779  0.727283
O  0.172086  0.520220  0.227282
O  0.327915  0.020221  0.272717
O  0.827914  0.479780  0.772718
O  0.650032  0.161478  0.921752
O  0.150033  0.338522  0.421752
O  0.349966  0.838522  0.078248
O  0.849968  0.661478  0.578248
O  0.821665  0.558324  0.962868
O  0.321666  0.941679  0.462867
O  0.178335  0.441677  0.037133
O  0.678333  0.058320  0.537133
O  0.866325  0.717012  0.166855
O  0.366326  0.782989  0.666854
O  0.133676  0.282988  0.833145
O  0.633675  0.217011  0.333146
O  0.561267  0.659358  0.086524
O  0.061267  0.840643  0.586522
O  0.438733  0.340643  0.913477
O  0.938733  0.159357  0.413478
O  0.944138  0.400504  0.146044
O  0.444137  0.099497  0.646044
O  0.055862  0.599495  0.853956
O  0.555862  0.900503  0.353955
O  0.676829  0.479579  0.273585
O  0.176829  0.020420  0.773586
O  0.323171  0.520421  0.726413
O  0.823171  0.979580  0.226414
O  0.627804  0.348450  0.065040
O  0.127804  0.151552  0.565041
O  0.372196  0.651550  0.934960
O  0.872196  0.848449  0.434959
%ENDBLOCK POSITIONS_FRAC

KPOINT_MP_GRID: 4 4 3

SPECTRAL_KPOINT_MP_GRID: 4 4 3
