# CELL file written 04:45:51 (GMT-4.0) 30th October 2025 from run ml_dos

%BLOCK lattice_cart
   ANG
       8.94098600000000        0.00000000000000        0.00000000000000    
     -0.400000000000000E-05    9.13063000000000        0.00000000000000    
     -0.814960000000000E-01  -0.100000000000000E-05    12.6049540000000    
%ENDBLOCK lattice_cart

%BLOCK positions_frac
   Li               0.211812000000000       0.724482000000000       0.176641000000000
   Li               0.711812000000000       0.775517000000000       0.676640000000000
   Li               0.788188000000000       0.275516000000000       0.823358000000000
   Li               0.288189000000000       0.224482000000000       0.323359000000000
   O                0.850618000000000       0.921667000000000       0.032542000000000
   O                0.350618000000000       0.578333000000000       0.532541000000000
   O                0.149381000000000       0.078332000000000       0.967459000000000
   O                0.649383000000000       0.421668000000000       0.467458000000000
   O                0.822224000000000       0.750331000000000       0.819173000000000
   O                0.322223000000000       0.749670000000000       0.319173000000000
   O                0.177777000000000       0.249670000000000       0.180827000000000
   O                0.677777000000000       0.250330000000000       0.680826000000000
   O                0.558914000000000       0.854735000000000       0.943895000000000
   O                0.058915000000000       0.645265000000000       0.443894000000000
   O                0.441086000000000       0.145265000000000       0.056106000000000
   O                0.941086000000000       0.354736000000000       0.556106000000000
   O                0.926583000000000       0.099518000000000       0.845467000000000
   O                0.426583000000000       0.400482000000000       0.345467000000000
   O                0.073418000000000       0.900482000000000       0.154534000000000
   O                0.573417000000000       0.599518000000000       0.654532000000000
   O                0.672085000000000       0.979779000000000       0.727283000000000
   O                0.172086000000000       0.520220000000000       0.227282000000000
   O                0.327915000000000       0.020221000000000       0.272717000000000
   O                0.827914000000000       0.479780000000000       0.772718000000000
   O                0.650032000000000       0.161478000000000       0.921752000000000
   O                0.150033000000000       0.338522000000000       0.421752000000000
   O                0.349966000000000       0.838522000000000       0.078248000000000
   O                0.849968000000000       0.661478000000000       0.578248000000000
   O                0.821665000000000       0.558324000000000       0.962868000000000
   O                0.321666000000000       0.941679000000000       0.462867000000000
   O                0.178335000000000       0.441677000000000       0.037133000000000
   O                0.678333000000000       0.058320000000000       0.537133000000000
   O                0.866325000000000       0.717012000000000       0.166855000000000
   O                0.366326000000000       0.782989000000000       0.666854000000000
   O                0.133676000000000       0.282988000000000       0.833145000000000
   O                0.633675000000000       0.217011000000000       0.333146000000000
   O                0.561267000000000       0.659358000000000       0.086524000000000
   O                0.061267000000000       0.840643000000000       0.586522000000000
   O                0.438733000000000       0.340643000000000       0.913477000000000
   O                0.938733000000000       0.159357000000000       0.413478000000000
   O                0.944138000000000       0.400504000000000       0.146044000000000
   O                0.444137000000000       0.099497000000000       0.646044000000000
   O                0.055862000000000       0.599495000000000       0.853956000000000
   O                0.555862000000000       0.900503000000000       0.353955000000000
   O                0.676829000000000       0.479579000000000       0.273585000000000
   O                0.176829000000000       0.020420000000000       0.773586000000000
   O                0.323171000000000       0.520421000000000       0.726413000000000
   O                0.823171000000000       0.979580000000000       0.226414000000000
   O                0.627804000000000       0.348450000000000       0.065040000000000
   O                0.127804000000000       0.151552000000000       0.565041000000000
   O                0.372196000000000       0.651550000000000       0.934960000000000
   O                0.872196000000000       0.848449000000000       0.434959000000000
   P                0.884434000000000       0.597638000000000       0.853734000000000
   P                0.384434000000000       0.902363000000000       0.353734000000000
   P                0.115566000000000       0.402362000000000       0.146266000000000
   P                0.615565000000000       0.097637000000000       0.646266000000000
   P                0.900671000000000       0.879288000000000       0.146123000000000
   P                0.400670000000000       0.620713000000000       0.646122000000000
   P                0.099330000000000       0.120712000000000       0.853877000000000
   P                0.599330000000000       0.379288000000000       0.353877000000000
   P                0.462942000000000       0.748905000000000       0.010535000000000
   P                0.962943000000000       0.751095000000000       0.510534000000000
   P                0.537058000000000       0.251095000000000       0.989465000000000
   P                0.037058000000000       0.248906000000000       0.489466000000000
   Zr               0.748368000000000       0.953893000000000       0.889570000000000
   Zr               0.248368000000000       0.546107000000000       0.389569000000000
   Zr               0.251632000000000       0.046108000000000       0.110430000000000
   Zr               0.751632000000000       0.453893000000000       0.610431000000000
   Zr               0.749361000000000       0.526585000000000       0.120160000000000
   Zr               0.249362000000000       0.973415000000000       0.620160000000000
   Zr               0.250639000000000       0.473414000000000       0.879840000000000
   Zr               0.750638000000000       0.026585000000000       0.379840000000000
%ENDBLOCK positions_frac

FIX_COM : true

%BLOCK species_pot
   Li        1|1.0|14|16|18|10U:20(qc=7)
   O         2|1.1|17|20|23|20:21(qc=8)
   P         3|1.8|4|4|5|30:31:32
   Zr        3|2.1|7|8|9|40U:50:41:42
%ENDBLOCK species_pot

%BLOCK species_lcao_states
   Li        3
   O         2
   P         2
   Zr        5
%ENDBLOCK species_lcao_states

SYMMETRY_TOL :     0.001000

%BLOCK symmetry_ops
# Symm. op. 1       E
          1.000000000000000       0.000000000000000       0.000000000000000
          0.000000000000000       1.000000000000000       0.000000000000000
          0.000000000000000       0.000000000000000       1.000000000000000
          0.000000000000000       0.000000000000000       0.000000000000000
%ENDBLOCK symmetry_ops

kpoint_mp_grid :    4   4   3

phonon_kpoint_mp_grid :    4   4   3

phonon_kpoint_mp_offset :        0.125000000000000       0.125000000000000       0.000000000000000

