# CELL file written 10:28:12 (GMT-5.0) 20th February 2026 from run ml_dos

%BLOCK lattice_cart
   ANG
       8.12396100000000        0.00000000000000        0.00000000000000    
       3.75911900000000        7.20371100000000        0.00000000000000    
      -1.04503500000000      -0.633308000000000        14.3579140000000    
%ENDBLOCK lattice_cart

%BLOCK positions_frac
   Li               0.912330000000000       0.307440000000000       0.695576000000000
   Li               0.307616000000000       0.912467000000000       0.195541000000000
   Li               0.011230000000000       0.649546000000000       0.035599000000000
   Li               0.649661000000000       0.011439000000000       0.535667000000000
   Li               0.334846000000000       0.698036000000000       0.371435000000000
   Li               0.698187000000000       0.334958000000000       0.871431000000000
   Li               0.539804000000000       0.041638000000000       0.240074000000000
   Li               0.041448000000000       0.539740000000000       0.740191000000000
   Li               0.816204000000000       0.229816000000000       0.190266000000000
   Li               0.229731000000000       0.816210000000000       0.690203000000000
   O                0.145385000000000       0.809806000000000       0.478160000000000
   O                0.809705000000000       0.145398000000000       0.978153000000000
   O                0.194016000000000       0.489162000000000       0.138340000000000
   O                0.489319000000000       0.194051000000000       0.638420000000000
   O                0.282550000000000       0.214552000000000       0.284157000000000
   O                0.214527000000000       0.282484000000000       0.784227000000000
   O                0.903482000000000       0.883324000000000       0.119074000000000
   O                0.883380000000000       0.903310000000000       0.619192000000000
   O                0.777038000000000       0.071238000000000       0.284756000000000
   O                0.071054000000000       0.776926000000000       0.784824000000000
   O                0.157622000000000       0.455585000000000       0.444033000000000
   O                0.455386000000000       0.157556000000000       0.944163000000000
   O                0.647443000000000       0.442388000000000       0.618732000000000
   O                0.442463000000000       0.647326000000000       0.118743000000000
   O                0.825313000000000       0.399123000000000       0.294077000000000
   O                0.399030000000000       0.825278000000000       0.794115000000000
   O                0.612205000000000       0.556608000000000       0.439847000000000
   O                0.556667000000000       0.612086000000000       0.939868000000000
   O                0.532850000000000       0.820105000000000       0.298261000000000
   O                0.819986000000000       0.532740000000000       0.798287000000000
   O                0.541766000000000       0.813010000000000       0.605216000000000
   O                0.813086000000000       0.541685000000000       0.105165000000000
   O                0.283747000000000       0.066660000000000       0.457929000000000
   O                0.066399000000000       0.283971000000000       0.958001000000000
   O                0.923002000000000       0.673746000000000       0.282848000000000
   O                0.673613000000000       0.922928000000000       0.782913000000000
   O                0.162452000000000       0.839283000000000       0.268827000000000
   O                0.839359000000000       0.162197000000000       0.768901000000000
   O                0.452447000000000       0.462103000000000       0.289152000000000
   O                0.462200000000000       0.452409000000000       0.789170000000000
   O                0.895386000000000       0.191954000000000       0.472325000000000
   O                0.192053000000000       0.895556000000000       0.972281000000000
   O                0.579767000000000       0.254154000000000       0.128703000000000
   O                0.254218000000000       0.579795000000000       0.628704000000000
   O                0.787071000000000       0.738580000000000       0.471853000000000
   O                0.738478000000000       0.787075000000000       0.971824000000000
   O                0.144144000000000       0.059931000000000       0.631337000000000
   O                0.059949000000000       0.144180000000000       0.131352000000000
   O                0.541159000000000       0.203380000000000       0.431558000000000
   O                0.203408000000000       0.541127000000000       0.931555000000000
   O                0.924537000000000       0.530487000000000       0.611194000000000
   O                0.530535000000000       0.924549000000000       0.111223000000000
   V                0.410406000000000       0.468896000000000       0.169324000000000 SPIN= 1.000
   V                0.468977000000000       0.410416000000000       0.669342000000000 SPIN= 1.000
   V                0.725927000000000       0.652291000000000       0.348954000000000 SPIN= 1.000
   V                0.652177000000000       0.725769000000000       0.848973000000000 SPIN= 1.000
   V                0.110162000000000       0.033127000000000       0.512119000000000 SPIN= 1.000
   V                0.032972000000000       0.110250000000000       0.012140000000000 SPIN= 1.000
   V                0.696799000000000       0.612789000000000       0.557314000000000 SPIN= 1.000
   V                0.612838000000000       0.696812000000000       0.057293000000000 SPIN= 1.000
   V                0.315100000000000       0.241983000000000       0.402730000000000 SPIN= 1.000
   V                0.241911000000000       0.315055000000000       0.902799000000000 SPIN= 1.000
   V                0.949166000000000       0.858722000000000       0.239592000000000 SPIN= 1.000
   V                0.858729000000000       0.948961000000000       0.739660000000000 SPIN= 1.000
   Fe               0.698078000000000       0.302420000000000       0.372379000000000 SPIN= 4.500
   Fe               0.302307000000000       0.698128000000000       0.872461000000000 SPIN= 4.500
   Fe               0.034163000000000       0.664191000000000       0.536141000000000 SPIN= 4.500
   Fe               0.664196000000000       0.034160000000000       0.036186000000000 SPIN= 4.500
   Fe               0.399122000000000       0.036113000000000       0.710916000000000 SPIN= 4.500
   Fe               0.036081000000000       0.399189000000000       0.210916000000000 SPIN= 4.500
%ENDBLOCK positions_frac

FIX_COM : true

%BLOCK hubbard_u
   EV
   V         d:3.250000
   Fe        d:5.300000
%ENDBLOCK hubbard_u

QUANTISATION_AXIS :     0.000000    0.000000    1.000000

%BLOCK species_pot
   Li        1|1.0|14|16|18|10U:20(qc=7)
   O         2|1.1|17|20|23|20:21(qc=8)
   V         3|1.8|1.8|0.6|12|14|16|30U:40:31:32(qc=7)
   Fe        3|2.4|2.4|1.0|8|9|10|40:41:32U2U2(qc=5.5)
%ENDBLOCK species_pot

%BLOCK species_lcao_states
   Li        3
   O         2
   V         5
   Fe        3
%ENDBLOCK species_lcao_states

SYMMETRY_TOL :     0.001000

%BLOCK symmetry_ops
# Symm. op. 1       E
          1.000000000000000       0.000000000000000       0.000000000000000
          0.000000000000000       1.000000000000000       0.000000000000000
          0.000000000000000       0.000000000000000       1.000000000000000
          0.000000000000000       0.000000000000000       0.000000000000000
%ENDBLOCK symmetry_ops

kpoint_mp_grid :    3   3   2

phonon_kpoint_mp_grid :    3   3   2

phonon_kpoint_mp_offset :        0.000000000000000       0.000000000000000       0.250000000000000

