# written by ASE

%BLOCK LATTICE_CART
 8.123961  0.000000  0.000000
 3.759119  7.203711  0.000000
-1.045035 -0.633308 14.357914
%ENDBLOCK LATTICE_CART

%BLOCK POSITIONS_FRAC
Fe  0.698078  0.302420  0.372379 spin 4.5
Fe  0.302307  0.698128  0.872461 spin 4.5
Fe  0.034163  0.664191  0.536141 spin 4.5
Fe  0.664196  0.034160  0.036186 spin 4.5
Fe  0.399122  0.036113  0.710916 spin 4.5
Fe  0.036081  0.399189  0.210916 spin 4.5
V  0.410406  0.468896  0.169324 spin 1
V  0.468977  0.410416  0.669342 spin 1
V  0.725927  0.652291  0.348954 spin 1
V  0.652177  0.725769  0.848973 spin 1
V  0.110162  0.033127  0.512119 spin 1
V  0.032972  0.110250  0.012140 spin 1
V  0.696799  0.612789  0.557314 spin 1
V  0.612838  0.696812  0.057293 spin 1
V  0.315100  0.241983  0.402730 spin 1
V  0.241911  0.315055  0.902799 spin 1
V  0.949166  0.858722  0.239592 spin 1
V  0.858729  0.948961  0.739660 spin 1
O  0.145385  0.809806  0.478160
O  0.809705  0.145398  0.978153
O  0.194016  0.489162  0.138340
O  0.489319  0.194051  0.638420
O  0.282550  0.214552  0.284157
O  0.214527  0.282484  0.784227
O  0.903482  0.883324  0.119074
O  0.883380  0.903310  0.619192
O  0.777038  0.071238  0.284756
O  0.071054  0.776926  0.784824
O  0.157622  0.455585  0.444033
O  0.455386  0.157556  0.944163
O  0.647443  0.442388  0.618732
O  0.442463  0.647326  0.118743
O  0.825313  0.399123  0.294077
O  0.399030  0.825278  0.794115
O  0.612205  0.556608  0.439847
O  0.556667  0.612086  0.939868
O  0.532850  0.820105  0.298261
O  0.819986  0.532740  0.798287
O  0.541766  0.813010  0.605216
O  0.813086  0.541685  0.105165
O  0.283747  0.066660  0.457929
O  0.066399  0.283971  0.958001
O  0.923002  0.673746  0.282848
O  0.673613  0.922928  0.782913
O  0.162452  0.839283  0.268827
O  0.839359  0.162197  0.768901
O  0.452447  0.462103  0.289152
O  0.462200  0.452409  0.789170
O  0.895386  0.191954  0.472325
O  0.192053  0.895556  0.972281
O  0.579767  0.254154  0.128703
O  0.254218  0.579795  0.628704
O  0.787071  0.738580  0.471853
O  0.738478  0.787075  0.971824
O  0.144144  0.059931  0.631337
O  0.059949  0.144180  0.131352
O  0.541159  0.203380  0.431558
O  0.203408  0.541127  0.931555
O  0.924537  0.530487  0.611194
O  0.530535  0.924549  0.111223
Li  0.912330  0.307440  0.695576
Li  0.307616  0.912467  0.195541
Li  0.011230  0.649546  0.035599
Li  0.649661  0.011439  0.535667
Li  0.334846  0.698036  0.371435
Li  0.698187  0.334958  0.871431
Li  0.539804  0.041638  0.240074
Li  0.041448  0.539740  0.740191
Li  0.816204  0.229816  0.190266
Li  0.229731  0.816210  0.690203
%ENDBLOCK POSITIONS_FRAC

%BLOCK hubbard_u
   EV
   V         d:3.250000
   Fe        d:5.300000
%ENDBLOCK hubbard_u

KPOINT_MP_GRID: 3 3 2

SPECTRAL_KPOINT_MP_GRID: 3 3 2
