# CELL file written 11:47:09 (GMT-5.0) 22nd December 2025 from run ml_dos

%BLOCK lattice_cart
   ANG
       8.29815100000000        0.00000000000000        0.00000000000000    
       3.97447100000000        7.28437200000000        0.00000000000000    
      -1.50783600000000      -0.894789000000000        14.5038290000000    
%ENDBLOCK lattice_cart

%BLOCK positions_frac
   Li               0.873027000000000       0.198960000000000       0.629859000000000
   Li               0.198877000000000       0.873074000000000       0.129864000000000
   Li               0.998682000000000       0.629541000000000       0.039126000000000
   Li               0.629608000000000       0.998623000000000       0.539182000000000
   Li               0.376130000000000       0.715290000000000       0.360169000000000
   Li               0.715270000000000       0.376125000000000       0.860178000000000
   Li               0.456031000000000       0.994412000000000       0.232208000000000
   Li               0.994565000000000       0.455974000000000       0.732214000000000
   Li               0.825302000000000       0.238426000000000       0.202318000000000
   Li               0.238431000000000       0.825285000000000       0.702320000000000
   O                0.150135000000000       0.806956000000000       0.476222000000000
   O                0.806945000000000       0.150052000000000       0.976249000000000
   O                0.209377000000000       0.476811000000000       0.139463000000000
   O                0.476849000000000       0.209331000000000       0.639452000000000
   O                0.269648000000000       0.228926000000000       0.286794000000000
   O                0.228785000000000       0.269783000000000       0.786782000000000
   O                0.907403000000000       0.882204000000000       0.121409000000000
   O                0.882221000000000       0.907451000000000       0.621410000000000
   O                0.811604000000000       0.085564000000000       0.294747000000000
   O                0.085581000000000       0.811620000000000       0.794733000000000
   O                0.176123000000000       0.444160000000000       0.460371000000000
   O                0.444150000000000       0.176129000000000       0.960345000000000
   O                0.640193000000000       0.445542000000000       0.630626000000000
   O                0.445503000000000       0.640188000000000       0.130653000000000
   O                0.843353000000000       0.420195000000000       0.303989000000000
   O                0.420196000000000       0.843350000000000       0.803951000000000
   O                0.609005000000000       0.544726000000000       0.457563000000000
   O                0.544756000000000       0.609059000000000       0.957570000000000
   O                0.555442000000000       0.790886000000000       0.311224000000000
   O                0.790885000000000       0.555417000000000       0.811215000000000
   O                0.552592000000000       0.826366000000000       0.598548000000000
   O                0.826388000000000       0.552557000000000       0.098555000000000
   O                0.277811000000000       0.066333000000000       0.448675000000000
   O                0.066318000000000       0.277800000000000       0.948684000000000
   O                0.933067000000000       0.674652000000000       0.275575000000000
   O                0.674698000000000       0.933032000000000       0.775579000000000
   O                0.168956000000000       0.833498000000000       0.261516000000000
   O                0.833537000000000       0.168995000000000       0.761510000000000
   O                0.477369000000000       0.453371000000000       0.294158000000000
   O                0.453318000000000       0.477428000000000       0.794177000000000
   O                0.899322000000000       0.183523000000000       0.484524000000000
   O                0.183473000000000       0.899345000000000       0.984534000000000
   O                0.600597000000000       0.255847000000000       0.131333000000000
   O                0.255914000000000       0.600527000000000       0.631406000000000
   O                0.815832000000000       0.750867000000000       0.451719000000000
   O                0.750879000000000       0.815822000000000       0.951720000000000
   O                0.166289000000000       0.043466000000000       0.628426000000000
   O                0.043431000000000       0.166305000000000       0.128430000000000
   O                0.545780000000000       0.193775000000000       0.434428000000000
   O                0.193780000000000       0.545760000000000       0.934402000000000
   O                0.912816000000000       0.543255000000000       0.603312000000000
   O                0.543252000000000       0.912804000000000       0.103310000000000
   V                0.421017000000000       0.456757000000000       0.176211000000000 SPIN= 1.000
   V                0.456828000000000       0.420977000000000       0.676230000000000 SPIN= 1.000
   V                0.774466000000000       0.649425000000000       0.347251000000000 SPIN= 1.000
   V                0.649395000000000       0.774425000000000       0.847274000000000 SPIN= 1.000
   V                0.127676000000000       0.020988000000000       0.508649000000000 SPIN= 1.000
   V                0.020970000000000       0.127667000000000       0.008667000000000 SPIN= 1.000
   V                0.684648000000000       0.599434000000000       0.567742000000000 SPIN= 1.000
   V                0.599447000000000       0.684647000000000       0.067753000000000 SPIN= 1.000
   V                0.318287000000000       0.240494000000000       0.404510000000000 SPIN= 1.000
   V                0.240482000000000       0.318244000000000       0.904508000000000 SPIN= 1.000
   V                0.950205000000000       0.869716000000000       0.241622000000000 SPIN= 1.000
   V                0.869698000000000       0.950250000000000       0.741636000000000 SPIN= 1.000
   Fe               0.692365000000000       0.299912000000000       0.385658000000000 SPIN= 4.500
   Fe               0.299974000000000       0.692213000000000       0.885660000000000 SPIN= 4.500
   Fe               0.039272000000000       0.669639000000000       0.540010000000000 SPIN= 4.500
   Fe               0.669669000000000       0.039505000000000       0.040117000000000 SPIN= 4.500
   Fe               0.403630000000000       0.041013000000000       0.703227000000000 SPIN= 4.500
   Fe               0.040837000000000       0.403670000000000       0.203233000000000 SPIN= 4.500
%ENDBLOCK positions_frac

FIX_COM : true

%BLOCK hubbard_u
   EV
   V         d:3.250000
   Fe        d:5.300000
%ENDBLOCK hubbard_u

QUANTISATION_AXIS :     0.000000    0.000000    1.000000

%BLOCK species_pot
   Li        1|1.0|14|16|18|10U:20(qc=7)
   O         2|1.1|17|20|23|20:21(qc=8)
   V         3|1.8|1.8|0.6|12|14|16|30U:40:31:32(qc=7)
   Fe        3|2.4|2.4|1.0|8|9|10|40:41:32U2U2(qc=5.5)
%ENDBLOCK species_pot

%BLOCK species_lcao_states
   Li        3
   O         2
   V         5
   Fe        3
%ENDBLOCK species_lcao_states

SYMMETRY_TOL :     0.001000

%BLOCK symmetry_ops
# Symm. op. 1       E
          1.000000000000000       0.000000000000000       0.000000000000000
          0.000000000000000       1.000000000000000       0.000000000000000
          0.000000000000000       0.000000000000000       1.000000000000000
          0.000000000000000       0.000000000000000       0.000000000000000
%ENDBLOCK symmetry_ops

kpoint_mp_grid :    3   3   2

phonon_kpoint_mp_grid :    3   3   2

phonon_kpoint_mp_offset :        0.000000000000000       0.000000000000000       0.250000000000000

