# written by ASE

%BLOCK LATTICE_CART
 8.298151  0.000000  0.000000
 3.974471  7.284372  0.000000
-1.507836 -0.894789 14.503829
%ENDBLOCK LATTICE_CART

%BLOCK POSITIONS_FRAC
Fe  0.692365  0.299912  0.385658 spin 4.5
Fe  0.299974  0.692213  0.885660 spin 4.5
Fe  0.039272  0.669639  0.540010 spin 4.5
Fe  0.669669  0.039505  0.040117 spin 4.5
Fe  0.403630  0.041013  0.703227 spin 4.5
Fe  0.040837  0.403670  0.203233 spin 4.5
V  0.421017  0.456757  0.176211 spin 1
V  0.456828  0.420977  0.676230 spin 1
V  0.774466  0.649425  0.347251 spin 1
V  0.649395  0.774425  0.847274 spin 1
V  0.127676  0.020988  0.508649 spin 1
V  0.020970  0.127667  0.008667 spin 1
V  0.684648  0.599434  0.567742 spin 1
V  0.599447  0.684647  0.067753 spin 1
V  0.318287  0.240494  0.404510 spin 1
V  0.240482  0.318244  0.904508 spin 1
V  0.950205  0.869716  0.241622 spin 1
V  0.869698  0.950250  0.741636 spin 1
O  0.150135  0.806956  0.476222
O  0.806945  0.150052  0.976249
O  0.209377  0.476811  0.139463
O  0.476849  0.209331  0.639452
O  0.269648  0.228926  0.286794
O  0.228785  0.269783  0.786782
O  0.907403  0.882204  0.121409
O  0.882221  0.907451  0.621410
O  0.811604  0.085564  0.294747
O  0.085581  0.811620  0.794733
O  0.176123  0.444160  0.460371
O  0.444150  0.176129  0.960345
O  0.640193  0.445542  0.630626
O  0.445503  0.640188  0.130653
O  0.843353  0.420195  0.303989
O  0.420196  0.843350  0.803951
O  0.609005  0.544726  0.457563
O  0.544756  0.609059  0.957570
O  0.555442  0.790886  0.311224
O  0.790885  0.555417  0.811215
O  0.552592  0.826366  0.598548
O  0.826388  0.552557  0.098555
O  0.277811  0.066333  0.448675
O  0.066318  0.277800  0.948684
O  0.933067  0.674652  0.275575
O  0.674698  0.933032  0.775579
O  0.168956  0.833498  0.261516
O  0.833537  0.168995  0.761510
O  0.477369  0.453371  0.294158
O  0.453318  0.477428  0.794177
O  0.899322  0.183523  0.484524
O  0.183473  0.899345  0.984534
O  0.600597  0.255847  0.131333
O  0.255914  0.600527  0.631406
O  0.815832  0.750867  0.451719
O  0.750879  0.815822  0.951720
O  0.166289  0.043466  0.628426
O  0.043431  0.166305  0.128430
O  0.545780  0.193775  0.434428
O  0.193780  0.545760  0.934402
O  0.912816  0.543255  0.603312
O  0.543252  0.912804  0.103310
Li  0.873027  0.198960  0.629859
Li  0.198877  0.873074  0.129864
Li  0.998682  0.629541  0.039126
Li  0.629608  0.998623  0.539182
Li  0.376130  0.715290  0.360169
Li  0.715270  0.376125  0.860178
Li  0.456031  0.994412  0.232208
Li  0.994565  0.455974  0.732214
Li  0.825302  0.238426  0.202318
Li  0.238431  0.825285  0.702320
%ENDBLOCK POSITIONS_FRAC

%BLOCK hubbard_u
   EV
   V         d:3.250000
   Fe        d:5.300000
%ENDBLOCK hubbard_u

KPOINT_MP_GRID: 3 3 2

SPECTRAL_KPOINT_MP_GRID: 3 3 2
