# CELL file written 00:50:48 (GMT-5.0) 20th February 2026 from run ml_dos

%BLOCK lattice_cart
   ANG
       8.03574600000000        0.00000000000000        0.00000000000000    
       3.70196300000000        7.13284300000000        0.00000000000000    
      -1.26993800000000      -0.770814000000000        14.4428260000000    
%ENDBLOCK lattice_cart

%BLOCK positions_frac
   Li               0.972862000000000       0.300926000000000       0.721587000000000
   Li               0.300626000000000       0.972707000000000       0.221673000000000
   Li               0.026704000000000       0.647988000000000       0.034129000000000
   Li               0.648085000000000       0.026737000000000       0.534180000000000
   Li               0.342558000000000       0.704311000000000       0.371895000000000
   Li               0.704532000000000       0.342685000000000       0.871753000000000
   O                0.157913000000000       0.804470000000000       0.485832000000000
   O                0.804581000000000       0.157961000000000       0.985767000000000
   O                0.172235000000000       0.478744000000000       0.147419000000000
   O                0.478819000000000       0.172271000000000       0.647409000000000
   O                0.241727000000000       0.232454000000000       0.286236000000000
   O                0.232504000000000       0.241843000000000       0.786229000000000
   O                0.906034000000000       0.882026000000000       0.118584000000000
   O                0.882124000000000       0.905885000000000       0.618607000000000
   O                0.788429000000000       0.070625000000000       0.292326000000000
   O                0.070547000000000       0.788496000000000       0.792394000000000
   O                0.142450000000000       0.462563000000000       0.446507000000000
   O                0.462750000000000       0.142313000000000       0.946460000000000
   O                0.624403000000000       0.428883000000000       0.623410000000000
   O                0.428634000000000       0.624695000000000       0.123466000000000
   O                0.831420000000000       0.417028000000000       0.306090000000000
   O                0.417050000000000       0.831423000000000       0.806085000000000
   O                0.620278000000000       0.560793000000000       0.442693000000000
   O                0.560831000000000       0.620446000000000       0.942771000000000
   O                0.532275000000000       0.807454000000000       0.306950000000000
   O                0.807430000000000       0.532394000000000       0.806951000000000
   O                0.525323000000000       0.811028000000000       0.607480000000000
   O                0.810910000000000       0.525254000000000       0.107568000000000
   O                0.278694000000000       0.069848000000000       0.457654000000000
   O                0.070048000000000       0.278707000000000       0.957712000000000
   O                0.914657000000000       0.672557000000000       0.277935000000000
   O                0.672566000000000       0.914795000000000       0.777968000000000
   O                0.165691000000000       0.839502000000000       0.269866000000000
   O                0.839715000000000       0.165732000000000       0.769758000000000
   O                0.455166000000000       0.452203000000000       0.295269000000000
   O                0.452347000000000       0.455113000000000       0.795306000000000
   O                0.891439000000000       0.186636000000000       0.476048000000000
   O                0.186708000000000       0.891448000000000       0.976026000000000
   O                0.556662000000000       0.236929000000000       0.130583000000000
   O                0.236639000000000       0.556667000000000       0.630768000000000
   O                0.789244000000000       0.780481000000000       0.454893000000000
   O                0.780648000000000       0.789256000000000       0.954883000000000
   O                0.151169000000000       0.076072000000000       0.635447000000000
   O                0.076014000000000       0.151098000000000       0.135424000000000
   O                0.529312000000000       0.217283000000000       0.433742000000000
   O                0.217470000000000       0.529198000000000       0.933778000000000
   O                0.897895000000000       0.533982000000000       0.595300000000000
   O                0.534147000000000       0.897910000000000       0.095269000000000
   V                0.400540000000000       0.444162000000000       0.177236000000000
   V                0.444064000000000       0.400597000000000       0.677270000000000
   V                0.738810000000000       0.666009000000000       0.355439000000000
   V                0.665993000000000       0.738940000000000       0.855472000000000
   V                0.111423000000000       0.034436000000000       0.517254000000000
   V                0.034456000000000       0.111479000000000       0.017229000000000
   V                0.669199000000000       0.589586000000000       0.566186000000000
   V                0.589519000000000       0.669250000000000       0.066217000000000
   V                0.301602000000000       0.251109000000000       0.403336000000000
   V                0.251274000000000       0.301580000000000       0.903334000000000
   V                0.946766000000000       0.867963000000000       0.239098000000000
   V                0.868064000000000       0.946742000000000       0.739109000000000
   Fe               0.698051000000000       0.296958000000000       0.371430000000000 SPIN= 5.000
   Fe               0.296946000000000       0.698117000000000       0.871440000000000 SPIN= 5.000
   Fe               0.024864000000000       0.674357000000000       0.539582000000000 SPIN= 5.000
   Fe               0.674410000000000       0.024943000000000       0.039560000000000 SPIN= 5.000
   Fe               0.396433000000000       0.008299000000000       0.709172000000000 SPIN= 5.000
   Fe               0.008116000000000       0.396454000000000       0.209161000000000 SPIN= 5.000
%ENDBLOCK positions_frac

FIX_COM : true

%BLOCK hubbard_u
   EV
   V         d:3.250000
   Fe        d:5.300000
%ENDBLOCK hubbard_u

QUANTISATION_AXIS :     0.000000    0.000000    1.000000

%BLOCK species_pot
   Li        1|1.0|14|16|18|10U:20(qc=7)
   O         2|1.1|17|20|23|20:21(qc=8)
   V         3|1.8|1.8|0.6|12|14|16|30U:40:31:32(qc=7)
   Fe        3|2.4|2.4|1.0|8|9|10|40:41:32U2U2(qc=5.5)
%ENDBLOCK species_pot

%BLOCK species_lcao_states
   Li        3
   O         2
   V         5
   Fe        3
%ENDBLOCK species_lcao_states

SYMMETRY_TOL :     0.001000

%BLOCK symmetry_ops
# Symm. op. 1       E
          1.000000000000000       0.000000000000000       0.000000000000000
          0.000000000000000       1.000000000000000       0.000000000000000
          0.000000000000000       0.000000000000000       1.000000000000000
          0.000000000000000       0.000000000000000       0.000000000000000
%ENDBLOCK symmetry_ops

kpoint_mp_grid :    3   3   2

phonon_kpoint_mp_grid :    3   3   2

phonon_kpoint_mp_offset :        0.000000000000000       0.000000000000000       0.250000000000000

