# written by ASE

%BLOCK LATTICE_CART
 8.035746  0.000000  0.000000
 3.701963  7.132843  0.000000
-1.269938 -0.770814 14.442826
%ENDBLOCK LATTICE_CART

%BLOCK POSITIONS_FRAC
Fe  0.698051  0.296958  0.371430 spin 5
Fe  0.296946  0.698117  0.871440 spin 5
Fe  0.024864  0.674357  0.539582 spin 5
Fe  0.674410  0.024943  0.039560 spin 5
Fe  0.396433  0.008299  0.709172 spin 5
Fe  0.008116  0.396454  0.209161 spin 5
V  0.400540  0.444162  0.177236
V  0.444064  0.400597  0.677270
V  0.738810  0.666009  0.355439
V  0.665993  0.738940  0.855472
V  0.111423  0.034436  0.517254
V  0.034456  0.111479  0.017229
V  0.669199  0.589586  0.566186
V  0.589519  0.669250  0.066217
V  0.301602  0.251109  0.403336
V  0.251274  0.301580  0.903334
V  0.946766  0.867963  0.239098
V  0.868064  0.946742  0.739109
O  0.157913  0.804470  0.485832
O  0.804581  0.157961  0.985767
O  0.172235  0.478744  0.147419
O  0.478819  0.172271  0.647409
O  0.241727  0.232454  0.286236
O  0.232504  0.241843  0.786229
O  0.906034  0.882026  0.118584
O  0.882124  0.905885  0.618607
O  0.788429  0.070625  0.292326
O  0.070547  0.788496  0.792394
O  0.142450  0.462563  0.446507
O  0.462750  0.142313  0.946460
O  0.624403  0.428883  0.623410
O  0.428634  0.624695  0.123466
O  0.831420  0.417028  0.306090
O  0.417050  0.831423  0.806085
O  0.620278  0.560793  0.442693
O  0.560831  0.620446  0.942771
O  0.532275  0.807454  0.306950
O  0.807430  0.532394  0.806951
O  0.525323  0.811028  0.607480
O  0.810910  0.525254  0.107568
O  0.278694  0.069848  0.457654
O  0.070048  0.278707  0.957712
O  0.914657  0.672557  0.277935
O  0.672566  0.914795  0.777968
O  0.165691  0.839502  0.269866
O  0.839715  0.165732  0.769758
O  0.455166  0.452203  0.295269
O  0.452347  0.455113  0.795306
O  0.891439  0.186636  0.476048
O  0.186708  0.891448  0.976026
O  0.556662  0.236929  0.130583
O  0.236639  0.556667  0.630768
O  0.789244  0.780481  0.454893
O  0.780648  0.789256  0.954883
O  0.151169  0.076072  0.635447
O  0.076014  0.151098  0.135424
O  0.529312  0.217283  0.433742
O  0.217470  0.529198  0.933778
O  0.897895  0.533982  0.595300
O  0.534147  0.897910  0.095269
Li  0.972862  0.300926  0.721587
Li  0.300626  0.972707  0.221673
Li  0.026704  0.647988  0.034129
Li  0.648085  0.026737  0.534180
Li  0.342558  0.704311  0.371895
Li  0.704532  0.342685  0.871753
%ENDBLOCK POSITIONS_FRAC

%BLOCK hubbard_u
   EV
   V         d:3.250000
   Fe        d:5.300000
%ENDBLOCK hubbard_u

KPOINT_MP_GRID: 3 3 2

SPECTRAL_KPOINT_MP_GRID: 3 3 2
