# CELL file written 00:04:50 (GMT-5.0) 22nd December 2025 from run ml_dos

%BLOCK lattice_cart
   ANG
       8.11078500000000        0.00000000000000        0.00000000000000    
       3.67495800000000        7.23047300000000        0.00000000000000    
      -1.54081200000000      -0.945252000000000        14.9024720000000    
%ENDBLOCK lattice_cart

%BLOCK positions_frac
   Li               0.993800000000000       0.280186000000000       0.740870000000000
   Li               0.280178000000000       0.993804000000000       0.240870000000000
   Li               0.012106000000000       0.569285000000000       0.030592000000000
   Li               0.569279000000000       0.012095000000000       0.530588000000000
   Li               0.376938000000000       0.689646000000000       0.346394000000000
   Li               0.689648000000000       0.376932000000000       0.846396000000000
   O                0.116243000000000       0.850553000000000       0.502968000000000
   O                0.850542000000000       0.116242000000000       0.002962000000000
   O                0.190995000000000       0.455291000000000       0.148352000000000
   O                0.455298000000000       0.191000000000000       0.648350000000000
   O                0.210145000000000       0.252664000000000       0.298293000000000
   O                0.252678000000000       0.210121000000000       0.798292000000000
   O                0.898465000000000       0.862571000000000       0.126805000000000
   O                0.862576000000000       0.898462000000000       0.626806000000000
   O                0.794220000000000       0.079913000000000       0.298056000000000
   O                0.079908000000000       0.794222000000000       0.798052000000000
   O                0.150841000000000       0.485558000000000       0.451368000000000
   O                0.485553000000000       0.150846000000000       0.951367000000000
   O                0.594069000000000       0.452364000000000       0.622154000000000
   O                0.452365000000000       0.594060000000000       0.122165000000000
   O                0.820761000000000       0.442904000000000       0.310110000000000
   O                0.442906000000000       0.820786000000000       0.810101000000000
   O                0.569344000000000       0.556300000000000       0.448784000000000
   O                0.556324000000000       0.569325000000000       0.948780000000000
   O                0.528138000000000       0.807725000000000       0.305792000000000
   O                0.807726000000000       0.528129000000000       0.805792000000000
   O                0.517122000000000       0.827151000000000       0.606382000000000
   O                0.827135000000000       0.517158000000000       0.106377000000000
   O                0.280794000000000       0.095697000000000       0.470499000000000
   O                0.095700000000000       0.280794000000000       0.970510000000000
   O                0.921394000000000       0.672515000000000       0.272682000000000
   O                0.672493000000000       0.921398000000000       0.772679000000000
   O                0.160432000000000       0.845896000000000       0.272569000000000
   O                0.845899000000000       0.160426000000000       0.772570000000000
   O                0.473551000000000       0.434327000000000       0.285681000000000
   O                0.434347000000000       0.473538000000000       0.785679000000000
   O                0.895864000000000       0.210561000000000       0.468453000000000
   O                0.210554000000000       0.895871000000000       0.968457000000000
   O                0.571355000000000       0.207499000000000       0.129690000000000
   O                0.207521000000000       0.571353000000000       0.629686000000000
   O                0.781847000000000       0.790060000000000       0.446740000000000
   O                0.790059000000000       0.781847000000000       0.946740000000000
   O                0.155465000000000       0.094297000000000       0.637664000000000
   O                0.094285000000000       0.155467000000000       0.137668000000000
   O                0.524348000000000       0.217914000000000       0.429533000000000
   O                0.217903000000000       0.524338000000000       0.929536000000000
   O                0.866628000000000       0.551949000000000       0.574751000000000
   O                0.551958000000000       0.866628000000000       0.074754000000000
   V                0.420462000000000       0.418706000000000       0.171255000000000
   V                0.418714000000000       0.420463000000000       0.671249000000000
   V                0.746846000000000       0.682179000000000       0.345337000000000
   V                0.682189000000000       0.746838000000000       0.845338000000000
   V                0.101928000000000       0.067903000000000       0.522630000000000
   V                0.067887000000000       0.101940000000000       0.022633000000000
   V                0.639241000000000       0.602344000000000       0.559340000000000
   V                0.602328000000000       0.639249000000000       0.059340000000000
   V                0.293032000000000       0.269542000000000       0.409564000000000
   V                0.269538000000000       0.293025000000000       0.909558000000000
   V                0.941309000000000       0.880585000000000       0.241618000000000
   V                0.880560000000000       0.941314000000000       0.741620000000000
   Fe               0.689507000000000       0.308462000000000       0.374693000000000 SPIN= 5.000
   Fe               0.308459000000000       0.689518000000000       0.874692000000000 SPIN= 5.000
   Fe               0.003297000000000       0.692761000000000       0.538582000000000 SPIN= 5.000
   Fe               0.692767000000000       0.003308000000000       0.038585000000000 SPIN= 5.000
   Fe               0.401339000000000       0.013673000000000       0.708604000000000 SPIN= 5.000
   Fe               0.013696000000000       0.401321000000000       0.208603000000000 SPIN= 5.000
%ENDBLOCK positions_frac

FIX_COM : true

%BLOCK hubbard_u
   EV
   V         d:3.250000
   Fe        d:5.300000
%ENDBLOCK hubbard_u

QUANTISATION_AXIS :     0.000000    0.000000    1.000000

%BLOCK species_pot
   Li        1|1.0|14|16|18|10U:20(qc=7)
   O         2|1.1|17|20|23|20:21(qc=8)
   V         3|1.8|1.8|0.6|12|14|16|30U:40:31:32(qc=7)
   Fe        3|2.4|2.4|1.0|8|9|10|40:41:32U2U2(qc=5.5)
%ENDBLOCK species_pot

%BLOCK species_lcao_states
   Li        3
   O         2
   V         5
   Fe        3
%ENDBLOCK species_lcao_states

SYMMETRY_TOL :     0.001000

%BLOCK symmetry_ops
# Symm. op. 1       E
          1.000000000000000       0.000000000000000       0.000000000000000
          0.000000000000000       1.000000000000000       0.000000000000000
          0.000000000000000       0.000000000000000       1.000000000000000
          0.000000000000000       0.000000000000000       0.000000000000000
%ENDBLOCK symmetry_ops

kpoint_mp_grid :    3   3   2

phonon_kpoint_mp_grid :    3   3   2

phonon_kpoint_mp_offset :        0.000000000000000       0.000000000000000       0.250000000000000

