# CELL file written 03:00:45 (GMT-4.0) 30th October 2025 from run ml_dos

%BLOCK lattice_cart
   ANG
       8.36569400000000        0.00000000000000        0.00000000000000    
       4.00117300000000        7.34680000000000        0.00000000000000    
       4.00117300000000        2.37698200000000        6.95165000000000    
%ENDBLOCK lattice_cart

%BLOCK positions_frac
   Li               0.499999000000000       0.499999000000000       0.500000000000000
   Li               0.000000000000000       0.000000000000000       0.999999000000000
   O                0.496723000000000       0.122836000000000       0.311925000000000
   O                0.122834000000000       0.311924000000000       0.496721000000000
   O                0.311923000000000       0.496724000000000       0.122833000000000
   O                0.996721000000000       0.811922000000000       0.622841000000000
   O                0.811924000000000       0.622839000000000       0.996719000000000
   O                0.622837000000000       0.996720000000000       0.811921000000000
   O                0.503272000000000       0.877172000000000       0.688077000000000
   O                0.877171000000000       0.688079000000000       0.503271000000000
   O                0.688078000000000       0.503270000000000       0.877170000000000
   O                0.003274000000000       0.188078000000000       0.377165000000000
   O                0.188077000000000       0.377166000000000       0.003275000000000
   O                0.377166000000000       0.003271000000000       0.188080000000000
   O                0.444188000000000       0.235122000000000       0.589659000000000
   O                0.235126000000000       0.589662000000000       0.444190000000000
   O                0.589661000000000       0.444191000000000       0.235124000000000
   O                0.944183000000000       0.089657000000000       0.735126000000000
   O                0.089659000000000       0.735125000000000       0.944193000000000
   O                0.735129000000000       0.944188000000000       0.089659000000000
   O                0.555808000000000       0.764882000000000       0.410328000000000
   O                0.764882000000000       0.410329000000000       0.555804000000000
   O                0.410335000000000       0.555810000000000       0.764880000000000
   O                0.055811000000000       0.910330000000000       0.264880000000000
   O                0.910334000000000       0.264879000000000       0.055808000000000
   O                0.264877000000000       0.055806000000000       0.910336000000000
   P                0.541725000000000       0.958285000000000       0.249993000000000
   P                0.958283000000000       0.249993000000000       0.541724000000000
   P                0.249996000000000       0.541725000000000       0.958281000000000
   P                0.041724000000000       0.750000000000000       0.458284000000000
   P                0.750000000000000       0.458283000000000       0.041725000000000
   P                0.458279000000000       0.041725000000000       0.750002000000000
   Ti               0.361657000000000       0.361655000000000       0.361663000000000
   Ti               0.861661000000000       0.861661000000000       0.861651000000000
   Ti               0.638342000000000       0.638340000000000       0.638350000000000
   Ti               0.138343000000000       0.138349000000000       0.138342000000000
%ENDBLOCK positions_frac

FIX_COM : true

%BLOCK species_pot
   Li        1|1.0|14|16|18|10U:20(qc=7)
   O         2|1.1|17|20|23|20:21(qc=8)
   P         3|1.8|4|4|5|30:31:32
   Ti        3|1.8|9|10|11|30U:40:31:32(qc=5.5)
%ENDBLOCK species_pot

%BLOCK species_lcao_states
   Li        3
   O         2
   P         2
   Ti        5
%ENDBLOCK species_lcao_states

SYMMETRY_TOL :     0.001000

%BLOCK symmetry_ops
# Symm. op. 1       E
          1.000000000000000       0.000000000000000       0.000000000000000
          0.000000000000000       1.000000000000000       0.000000000000000
          0.000000000000000       0.000000000000000       1.000000000000000
          0.000000000000000       0.000000000000000       0.000000000000000
%ENDBLOCK symmetry_ops

kpoint_mp_grid :    4   4   4

phonon_kpoint_mp_grid :    4   4   4

phonon_kpoint_mp_offset :        0.125000000000000       0.125000000000000       0.125000000000000

