# written by ASE

%BLOCK LATTICE_CART
 8.365694  0.000000  0.000000
 4.001173  7.346800  0.000000
 4.001173  2.376982  6.951650
%ENDBLOCK LATTICE_CART

%BLOCK POSITIONS_FRAC
Ti  0.361657  0.361655  0.361663
Ti  0.861661  0.861661  0.861651
Ti  0.638342  0.638340  0.638350
Ti  0.138343  0.138349  0.138342
P  0.541725  0.958285  0.249993
P  0.958283  0.249993  0.541724
P  0.249996  0.541725  0.958281
P  0.041724  0.750000  0.458284
P  0.750000  0.458283  0.041725
P  0.458279  0.041725  0.750002
O  0.496723  0.122836  0.311925
O  0.122834  0.311924  0.496721
O  0.311923  0.496724  0.122833
O  0.996721  0.811922  0.622841
O  0.811924  0.622839  0.996719
O  0.622837  0.996720  0.811921
O  0.503272  0.877172  0.688077
O  0.877171  0.688079  0.503271
O  0.688078  0.503270  0.877170
O  0.003274  0.188078  0.377165
O  0.188077  0.377166  0.003275
O  0.377166  0.003271  0.188080
O  0.444188  0.235122  0.589659
O  0.235126  0.589662  0.444190
O  0.589661  0.444191  0.235124
O  0.944183  0.089657  0.735126
O  0.089659  0.735125  0.944193
O  0.735129  0.944188  0.089659
O  0.555808  0.764882  0.410328
O  0.764882  0.410329  0.555804
O  0.410335  0.555810  0.764880
O  0.055811  0.910330  0.264880
O  0.910334  0.264879  0.055808
O  0.264877  0.055806  0.910336
Li  0.499999  0.499999  0.500000
Li  0.000000  0.000000  0.999999
%ENDBLOCK POSITIONS_FRAC

KPOINT_MP_GRID: 4 4 4

spectral_kpoint_mp_grid: 4 4 4
